conf(2055081, 897198).
inConf((2055081, 897198), 2055081).
inConf((2055081, 897198), 897198).
conf(936636, 936375).
inConf((936636, 936375), 936636).
inConf((936636, 936375), 936375).
conf(764825, 1974890).
inConf((764825, 1974890), 764825).
inConf((764825, 1974890), 1974890).
conf(936407, 936375).
inConf((936407, 936375), 936407).
inConf((936407, 936375), 936375).
conf(2043152, 897198).
inConf((2043152, 897198), 2043152).
inConf((2043152, 897198), 897198).
conf(897546, 897198).
inConf((897546, 897198), 897546).
inConf((897546, 897198), 897198).
conf(1057569, 1057014).
inConf((1057569, 1057014), 1057569).
inConf((1057569, 1057014), 1057014).
conf(2043826, 897198).
inConf((2043826, 897198), 2043826).
inConf((2043826, 897198), 897198).
conf(1057160, 1057014).
inConf((1057160, 1057014), 1057160).
inConf((1057160, 1057014), 1057014).
conf(936672, 936375).
inConf((936672, 936375), 936672).
inConf((936672, 936375), 936375).
conf(1539944, 860325).
inConf((1539944, 860325), 1539944).
inConf((1539944, 860325), 860325).
conf(45848, 445148).
inConf((45848, 445148), 45848).
inConf((45848, 445148), 445148).
conf(1057425, 1057014).
inConf((1057425, 1057014), 1057425).
inConf((1057425, 1057014), 1057014).
conf(897402, 897198).
inConf((897402, 897198), 897402).
inConf((897402, 897198), 897198).
conf(48761, 1815893).
inConf((48761, 1815893), 48761).
inConf((48761, 1815893), 1815893).
conf(936528, 936375).
inConf((936528, 936375), 936528).
inConf((936528, 936375), 936375).
conf(897667, 897198).
inConf((897667, 897198), 897667).
inConf((897667, 897198), 897198).
conf(897438, 897198).
inConf((897438, 897198), 897438).
inConf((897438, 897198), 897198).
conf(1371644, 936375).
inConf((1371644, 936375), 1371644).
inConf((1371644, 936375), 936375).
conf(1057281, 1057014).
inConf((1057281, 1057014), 1057281).
inConf((1057281, 1057014), 1057014).
conf(936793, 936375).
inConf((936793, 936375), 936793).
inConf((936793, 936375), 936375).
conf(936384, 936375).
inConf((936384, 936375), 936384).
inConf((936384, 936375), 936375).
conf(897198, 1376239).
inConf((897198, 1376239), 897198).
inConf((897198, 1376239), 1376239).
conf(1057546, 1057014).
inConf((1057546, 1057014), 1057546).
inConf((1057546, 1057014), 1057014).
conf(897523, 897198).
inConf((897523, 897198), 897523).
inConf((897523, 897198), 897198).
conf(897198, 897294).
inConf((897198, 897294), 897198).
inConf((897198, 897294), 897294).
conf(46489, 1539229).
inConf((46489, 1539229), 46489).
inConf((46489, 1539229), 1539229).
conf(1361104, 1377484).
inConf((1361104, 1377484), 1361104).
inConf((1361104, 1377484), 1377484).
conf(1057137, 1057014).
inConf((1057137, 1057014), 1057137).
inConf((1057137, 1057014), 1057014).
conf(936649, 936375).
inConf((936649, 936375), 936649).
inConf((936649, 936375), 936375).
conf(2016720, 530577).
inConf((2016720, 530577), 2016720).
inConf((2016720, 530577), 530577).
conf(897198, 897559).
inConf((897198, 897559), 897198).
inConf((897198, 897559), 897559).
conf(1057402, 1057014).
inConf((1057402, 1057014), 1057402).
inConf((1057402, 1057014), 1057014).
conf(1057173, 1057014).
inConf((1057173, 1057014), 1057173).
inConf((1057173, 1057014), 1057014).
conf(936505, 936375).
inConf((936505, 936375), 936505).
inConf((936505, 936375), 936375).
conf(2052426, 936375).
inConf((2052426, 936375), 2052426).
inConf((2052426, 936375), 936375).
conf(2047996, 936375).
inConf((2047996, 936375), 2047996).
inConf((2047996, 936375), 936375).
conf(897198, 897415).
inConf((897198, 897415), 897198).
inConf((897198, 897415), 897415).
conf(130656, 834713).
inConf((130656, 834713), 130656).
inConf((130656, 834713), 834713).
conf(1057258, 1057014).
inConf((1057258, 1057014), 1057258).
inConf((1057258, 1057014), 1057014).
conf(936770, 936375).
inConf((936770, 936375), 936770).
inConf((936770, 936375), 936375).
conf(1057029, 1057014).
inConf((1057029, 1057014), 1057029).
inConf((1057029, 1057014), 1057014).
conf(897680, 897198).
inConf((897680, 897198), 897680).
inConf((897680, 897198), 897198).
conf(1958696, 46489).
inConf((1958696, 46489), 1958696).
inConf((1958696, 46489), 46489).
conf(1057523, 1057014).
inConf((1057523, 1057014), 1057523).
inConf((1057523, 1057014), 1057014).
conf(897198, 897271).
inConf((897198, 897271), 897198).
inConf((897198, 897271), 897271).
conf(1057014, 1057294).
inConf((1057014, 1057294), 1057014).
inConf((1057014, 1057294), 1057294).
conf(936626, 936375).
inConf((936626, 936375), 936626).
inConf((936626, 936375), 936375).
conf(936397, 936375).
inConf((936397, 936375), 936397).
inConf((936397, 936375), 936375).
conf(897536, 897198).
inConf((897536, 897198), 897536).
inConf((897536, 897198), 897198).
conf(1431497, 286252).
inConf((1431497, 286252), 1431497).
inConf((1431497, 286252), 286252).
conf(1057379, 1057014).
inConf((1057379, 1057014), 1057379).
inConf((1057379, 1057014), 1057014).
conf(1057150, 1057014).
inConf((1057150, 1057014), 1057150).
inConf((1057150, 1057014), 1057014).
conf(936482, 936375).
inConf((936482, 936375), 936482).
inConf((936482, 936375), 936375).
conf(1371104, 936375).
inConf((1371104, 936375), 1371104).
inConf((1371104, 936375), 936375).
conf(897392, 897198).
inConf((897392, 897198), 897392).
inConf((897392, 897198), 897198).
conf(1431353, 286252).
inConf((1431353, 286252), 1431353).
inConf((1431353, 286252), 286252).
conf(1057014, 1057415).
inConf((1057014, 1057415), 1057014).
inConf((1057014, 1057415), 1057415).
conf(1760360, 46829).
inConf((1760360, 46829), 1760360).
inConf((1760360, 46829), 46829).
conf(847865, 416214).
inConf((847865, 416214), 847865).
inConf((847865, 416214), 416214).
conf(936747, 936375).
inConf((936747, 936375), 936747).
inConf((936747, 936375), 936375).
conf(936518, 936375).
inConf((936518, 936375), 936518).
inConf((936518, 936375), 936375).
conf(2045478, 897198).
inConf((2045478, 897198), 2045478).
inConf((2045478, 897198), 897198).
conf(897657, 897198).
inConf((897657, 897198), 897657).
inConf((897657, 897198), 897198).
conf(67378, 1368695).
inConf((67378, 1368695), 67378).
inConf((67378, 1368695), 1368695).
conf(897248, 897198).
inConf((897248, 897198), 897248).
inConf((897248, 897198), 897198).
conf(1057014, 1057271).
inConf((1057014, 1057271), 1057014).
inConf((1057014, 1057271), 1057271).
conf(936783, 936375).
inConf((936783, 936375), 936783).
inConf((936783, 936375), 936375).
conf(131762, 824879).
inConf((131762, 824879), 131762).
inConf((131762, 824879), 824879).
conf(120053, 763606).
inConf((120053, 763606), 120053).
inConf((120053, 763606), 763606).
conf(1789356, 46324).
inConf((1789356, 46324), 1789356).
inConf((1789356, 46324), 46324).
conf(496837, 897198).
inConf((496837, 897198), 496837).
inConf((496837, 897198), 897198).
conf(897513, 897198).
inConf((897513, 897198), 897513).
inConf((897513, 897198), 897198).
conf(1057536, 1057014).
inConf((1057536, 1057014), 1057536).
inConf((1057536, 1057014), 1057014).
conf(897284, 897198).
inConf((897284, 897198), 897284).
inConf((897284, 897198), 897198).
conf(1057014, 1057127).
inConf((1057014, 1057127), 1057014).
inConf((1057014, 1057127), 1057127).
conf(936639, 936375).
inConf((936639, 936375), 936639).
inConf((936639, 936375), 936375).
conf(897369, 897198).
inConf((897369, 897198), 897369).
inConf((897369, 897198), 897198).
conf(1057392, 1057014).
inConf((1057392, 1057014), 1057392).
inConf((1057392, 1057014), 1057014).
conf(936495, 936375).
inConf((936495, 936375), 936495).
inConf((936495, 936375), 936375).
conf(323191, 9695).
inConf((323191, 9695), 323191).
inConf((323191, 9695), 9695).
conf(897634, 897198).
inConf((897634, 897198), 897634).
inConf((897634, 897198), 897198).
conf(286629, 1432485).
inConf((286629, 1432485), 286629).
inConf((286629, 1432485), 1432485).
conf(897405, 897198).
inConf((897405, 897198), 897405).
inConf((897405, 897198), 897198).
conf(46489, 1539340).
inConf((46489, 1539340), 46489).
inConf((46489, 1539340), 1539340).
conf(1057248, 1057014).
inConf((1057248, 1057014), 1057248).
inConf((1057248, 1057014), 1057014).
conf(936760, 936375).
inConf((936760, 936375), 936760).
inConf((936760, 936375), 936375).
conf(28304, 286629).
inConf((28304, 286629), 28304).
inConf((28304, 286629), 286629).
conf(1760867, 46829).
inConf((1760867, 46829), 1760867).
inConf((1760867, 46829), 46829).
conf(897490, 897198).
inConf((897490, 897198), 897490).
inConf((897490, 897198), 897198).
conf(338730, 2024557).
inConf((338730, 2024557), 338730).
inConf((338730, 2024557), 2024557).
conf(1057513, 1057014).
inConf((1057513, 1057014), 1057513).
inConf((1057513, 1057014), 1057014).
conf(897261, 897198).
inConf((897261, 897198), 897261).
inConf((897261, 897198), 897198).
conf(2044673, 897198).
inConf((2044673, 897198), 2044673).
inConf((2044673, 897198), 897198).
conf(1057104, 1057014).
inConf((1057104, 1057014), 1057104).
inConf((1057104, 1057014), 1057014).
conf(936616, 936375).
inConf((936616, 936375), 936616).
inConf((936616, 936375), 936375).
conf(897526, 897198).
inConf((897526, 897198), 897526).
inConf((897526, 897198), 897198).
conf(368440, 46829).
inConf((368440, 46829), 368440).
inConf((368440, 46829), 46829).
conf(1105128, 2007730).
inConf((1105128, 2007730), 1105128).
inConf((1105128, 2007730), 2007730).
conf(1057369, 1057014).
inConf((1057369, 1057014), 1057369).
inConf((1057369, 1057014), 1057014).
conf(2055146, 897198).
inConf((2055146, 897198), 2055146).
inConf((2055146, 897198), 897198).
conf(1057140, 1057014).
inConf((1057140, 1057014), 1057140).
inConf((1057140, 1057014), 1057014).
conf(936472, 936375).
inConf((936472, 936375), 936472).
inConf((936472, 936375), 936375).
conf(897382, 897198).
inConf((897382, 897198), 897382).
inConf((897382, 897198), 897198).
conf(43864, 1760378).
inConf((43864, 1760378), 43864).
inConf((43864, 1760378), 1760378).
conf(1057225, 1057014).
inConf((1057225, 1057014), 1057225).
inConf((1057225, 1057014), 1057014).
conf(936737, 936375).
inConf((936737, 936375), 936737).
inConf((936737, 936375), 936375).
conf(897198, 897647).
inConf((897198, 897647), 897198).
inConf((897198, 897647), 897647).
conf(1432498, 286629).
inConf((1432498, 286629), 1432498).
inConf((1432498, 286629), 286629).
conf(1057490, 1057014).
inConf((1057490, 1057014), 1057490).
inConf((1057490, 1057014), 1057014).
conf(897238, 897198).
inConf((897238, 897198), 897238).
inConf((897238, 897198), 897198).
conf(1057261, 1057014).
inConf((1057261, 1057014), 1057261).
inConf((1057261, 1057014), 1057014).
conf(936593, 936375).
inConf((936593, 936375), 936593).
inConf((936593, 936375), 936375).
conf(865045, 369678).
inConf((865045, 369678), 865045).
inConf((865045, 369678), 369678).
conf(897198, 897503).
inConf((897198, 897503), 897198).
inConf((897198, 897503), 897503).
conf(1057014, 1057526).
inConf((1057014, 1057526), 1057014).
inConf((1057014, 1057526), 1057526).
conf(2050019, 897198).
inConf((2050019, 897198), 2050019).
inConf((2050019, 897198), 897198).
conf(1057117, 1057014).
inConf((1057117, 1057014), 1057117).
inConf((1057117, 1057014), 1057014).
conf(936629, 936375).
inConf((936629, 936375), 936629).
inConf((936629, 936375), 936375).
conf(42124, 1929982).
inConf((42124, 1929982), 42124).
inConf((42124, 1929982), 1929982).
conf(130656, 814012).
inConf((130656, 814012), 130656).
inConf((130656, 814012), 814012).
conf(1734038, 9695).
inConf((1734038, 9695), 1734038).
inConf((1734038, 9695), 9695).
conf(897198, 897359).
inConf((897198, 897359), 897198).
inConf((897198, 897359), 897359).
conf(1057382, 1057014).
inConf((1057382, 1057014), 1057382).
inConf((1057382, 1057014), 1057014).
conf(936714, 936375).
inConf((936714, 936375), 936714).
inConf((936714, 936375), 936375).
conf(936485, 936375).
inConf((936485, 936375), 936485).
inConf((936485, 936375), 936375).
conf(897624, 897198).
inConf((897624, 897198), 897624).
inConf((897624, 897198), 897198).
conf(897198, 897215).
inConf((897198, 897215), 897198).
inConf((897198, 897215), 897215).
conf(1057238, 1057014).
inConf((1057238, 1057014), 1057238).
inConf((1057238, 1057014), 1057014).
conf(936750, 936375).
inConf((936750, 936375), 936750).
inConf((936750, 936375), 936375).
conf(2049502, 897198).
inConf((2049502, 897198), 2049502).
inConf((2049502, 897198), 897198).
conf(1487252, 858749).
inConf((1487252, 858749), 1487252).
inConf((1487252, 858749), 858749).
conf(897480, 897198).
inConf((897480, 897198), 897480).
inConf((897480, 897198), 897198).
conf(1057014, 1057503).
inConf((1057014, 1057503), 1057014).
inConf((1057014, 1057503), 1057503).
conf(897251, 897198).
inConf((897251, 897198), 897251).
inConf((897251, 897198), 897198).
conf(1057094, 1057014).
inConf((1057094, 1057014), 1057094).
inConf((1057094, 1057014), 1057014).
conf(936606, 936375).
inConf((936606, 936375), 936606).
inConf((936606, 936375), 936375).
conf(897336, 897198).
inConf((897336, 897198), 897336).
inConf((897336, 897198), 897198).
conf(1057014, 1057359).
inConf((1057014, 1057359), 1057014).
inConf((1057014, 1057359), 1057359).
conf(936462, 936375).
inConf((936462, 936375), 936462).
inConf((936462, 936375), 936375).
conf(1929442, 286447).
inConf((1929442, 286447), 1929442).
inConf((1929442, 286447), 286447).
conf(897601, 897198).
inConf((897601, 897198), 897601).
inConf((897601, 897198), 897198).
conf(897372, 897198).
inConf((897372, 897198), 897372).
inConf((897372, 897198), 897198).
conf(1057014, 1057215).
inConf((1057014, 1057215), 1057014).
inConf((1057014, 1057215), 1057215).
conf(936727, 936375).
inConf((936727, 936375), 936727).
inConf((936727, 936375), 936375).
conf(897637, 897198).
inConf((897637, 897198), 897637).
inConf((897637, 897198), 897198).
conf(1057480, 1057014).
inConf((1057480, 1057014), 1057480).
inConf((1057480, 1057014), 1057014).
conf(897228, 897198).
inConf((897228, 897198), 897228).
inConf((897228, 897198), 897198).
conf(1057014, 1057071).
inConf((1057014, 1057071), 1057014).
inConf((1057014, 1057071), 1057071).
conf(936583, 936375).
inConf((936583, 936375), 936583).
inConf((936583, 936375), 936375).
conf(43600, 1873148).
inConf((43600, 1873148), 43600).
inConf((43600, 1873148), 1873148).
conf(897493, 897198).
inConf((897493, 897198), 897493).
inConf((897493, 897198), 897198).
conf(1057336, 1057014).
inConf((1057336, 1057014), 1057336).
inConf((1057336, 1057014), 1057014).
conf(1057107, 1057014).
inConf((1057107, 1057014), 1057107).
inConf((1057107, 1057014), 1057014).
conf(1760052, 46829).
inConf((1760052, 46829), 1760052).
inConf((1760052, 46829), 46829).
conf(858749, 1486447).
inConf((858749, 1486447), 858749).
inConf((858749, 1486447), 1486447).
conf(936439, 936375).
inConf((936439, 936375), 936439).
inConf((936439, 936375), 936375).
conf(46324, 1789421).
inConf((46324, 1789421), 46324).
inConf((46324, 1789421), 1789421).
conf(897349, 897198).
inConf((897349, 897198), 897349).
inConf((897349, 897198), 897198).
conf(1057372, 1057014).
inConf((1057372, 1057014), 1057372).
inConf((1057372, 1057014), 1057014).
conf(936704, 936375).
inConf((936704, 936375), 936704).
inConf((936704, 936375), 936375).
conf(936475, 936375).
inConf((936475, 936375), 936475).
inConf((936475, 936375), 936375).
conf(897614, 897198).
inConf((897614, 897198), 897614).
inConf((897614, 897198), 897198).
conf(43600, 1871957).
inConf((43600, 1871957), 43600).
inConf((43600, 1871957), 1871957).
conf(1057457, 1057014).
inConf((1057457, 1057014), 1057457).
inConf((1057457, 1057014), 1057014).
conf(1057228, 1057014).
inConf((1057228, 1057014), 1057228).
inConf((1057228, 1057014), 1057014).
conf(936560, 936375).
inConf((936560, 936375), 936560).
inConf((936560, 936375), 936375).
conf(1361104, 1378069).
inConf((1361104, 1378069), 1361104).
inConf((1361104, 1378069), 1378069).
conf(897470, 897198).
inConf((897470, 897198), 897470).
inConf((897470, 897198), 897198).
conf(1057493, 1057014).
inConf((1057493, 1057014), 1057493).
inConf((1057493, 1057014), 1057014).
conf(1486604, 858749).
inConf((1486604, 858749), 1486604).
inConf((1486604, 858749), 858749).
conf(936825, 936375).
inConf((936825, 936375), 936825).
inConf((936825, 936375), 936375).
conf(1057084, 1057014).
inConf((1057084, 1057014), 1057084).
inConf((1057084, 1057014), 1057014).
conf(936596, 936375).
inConf((936596, 936375), 936596).
inConf((936596, 936375), 936375).
conf(1760932, 46829).
inConf((1760932, 46829), 1760932).
inConf((1760932, 46829), 46829).
conf(1057578, 1057014).
inConf((1057578, 1057014), 1057578).
inConf((1057578, 1057014), 1057014).
conf(897326, 897198).
inConf((897326, 897198), 897326).
inConf((897326, 897198), 897198).
conf(1760523, 46829).
inConf((1760523, 46829), 1760523).
inConf((1760523, 46829), 46829).
conf(1057349, 1057014).
inConf((1057349, 1057014), 1057349).
inConf((1057349, 1057014), 1057014).
conf(936681, 936375).
inConf((936681, 936375), 936681).
inConf((936681, 936375), 936375).
conf(936452, 936375).
inConf((936452, 936375), 936452).
inConf((936452, 936375), 936375).
conf(897198, 897591).
inConf((897198, 897591), 897198).
inConf((897198, 897591), 897591).
conf(2044774, 897198).
inConf((2044774, 897198), 2044774).
inConf((2044774, 897198), 897198).
conf(1057205, 1057014).
inConf((1057205, 1057014), 1057205).
inConf((1057205, 1057014), 1057014).
conf(936717, 936375).
inConf((936717, 936375), 936717).
inConf((936717, 936375), 936375).
conf(1370227, 1872950).
inConf((1370227, 1872950), 1370227).
inConf((1370227, 1872950), 1872950).
conf(1057470, 1057014).
inConf((1057470, 1057014), 1057470).
inConf((1057470, 1057014), 1057014).
conf(897198, 897447).
inConf((897198, 897447), 897198).
inConf((897198, 897447), 897447).
conf(897218, 897198).
inConf((897218, 897198), 897218).
inConf((897218, 897198), 897198).
conf(1057061, 1057014).
inConf((1057061, 1057014), 1057061).
inConf((1057061, 1057014), 1057014).
conf(936573, 936375).
inConf((936573, 936375), 936573).
inConf((936573, 936375), 936375).
conf(1845385, 288455).
inConf((1845385, 288455), 1845385).
inConf((1845385, 288455), 288455).
conf(1845156, 288455).
inConf((1845156, 288455), 1845156).
inConf((1845156, 288455), 288455).
conf(897712, 897198).
inConf((897712, 897198), 897712).
inConf((897712, 897198), 897198).
conf(1789272, 288665).
inConf((1789272, 288665), 1789272).
inConf((1789272, 288665), 288665).
conf(897483, 897198).
inConf((897483, 897198), 897483).
inConf((897483, 897198), 897198).
conf(1057326, 1057014).
inConf((1057326, 1057014), 1057326).
inConf((1057326, 1057014), 1057014).
conf(936838, 936375).
inConf((936838, 936375), 936838).
inConf((936838, 936375), 936375).
conf(288665, 1789537).
inConf((288665, 1789537), 288665).
inConf((288665, 1789537), 1789537).
conf(936429, 936375).
inConf((936429, 936375), 936429).
inConf((936429, 936375), 936375).
conf(1789411, 46324).
inConf((1789411, 46324), 1789411).
inConf((1789411, 46324), 46324).
conf(2043625, 1057014).
inConf((2043625, 1057014), 2043625).
inConf((2043625, 1057014), 1057014).
conf(897568, 897198).
inConf((897568, 897198), 897568).
inConf((897568, 897198), 897198).
conf(897198, 2053382).
inConf((897198, 2053382), 897198).
inConf((897198, 2053382), 2053382).
conf(897339, 897198).
inConf((897339, 897198), 897339).
inConf((897339, 897198), 897198).
conf(1057182, 1057014).
inConf((1057182, 1057014), 1057182).
inConf((1057182, 1057014), 1057014).
conf(936694, 936375).
inConf((936694, 936375), 936694).
inConf((936694, 936375), 936375).
conf(897604, 897198).
inConf((897604, 897198), 897604).
inConf((897604, 897198), 897198).
conf(43600, 1871947).
inConf((43600, 1871947), 43600).
inConf((43600, 1871947), 1871947).
conf(46489, 1539539).
inConf((46489, 1539539), 46489).
inConf((46489, 1539539), 1539539).
conf(1057014, 1057447).
inConf((1057014, 1057447), 1057014).
inConf((1057014, 1057447), 1057447).
conf(1057218, 1057014).
inConf((1057218, 1057014), 1057218).
inConf((1057218, 1057014), 1057014).
conf(1845542, 288455).
inConf((1845542, 288455), 1845542).
inConf((1845542, 288455), 288455).
conf(124668, 761125).
inConf((124668, 761125), 124668).
inConf((124668, 761125), 761125).
conf(936550, 936375).
inConf((936550, 936375), 936550).
inConf((936550, 936375), 936375).
conf(37048, 1057014).
inConf((37048, 1057014), 37048).
inConf((37048, 1057014), 1057014).
conf(897460, 897198).
inConf((897460, 897198), 897460).
inConf((897460, 897198), 897198).
conf(1057014, 1057303).
inConf((1057014, 1057303), 1057014).
inConf((1057014, 1057303), 1057303).
conf(936815, 936375).
inConf((936815, 936375), 936815).
inConf((936815, 936375), 936375).
conf(1057074, 1057014).
inConf((1057074, 1057014), 1057074).
inConf((1057074, 1057014), 1057014).
conf(936406, 936375).
inConf((936406, 936375), 936406).
inConf((936406, 936375), 936375).
conf(1057568, 1057014).
inConf((1057568, 1057014), 1057568).
inConf((1057568, 1057014), 1057014).
conf(897316, 897198).
inConf((897316, 897198), 897316).
inConf((897316, 897198), 897198).
conf(1057339, 1057014).
inConf((1057339, 1057014), 1057339).
inConf((1057339, 1057014), 1057014).
conf(936671, 936375).
inConf((936671, 936375), 936671).
inConf((936671, 936375), 936375).
conf(43600, 1872562).
inConf((43600, 1872562), 43600).
inConf((43600, 1872562), 1872562).
conf(936442, 936375).
inConf((936442, 936375), 936442).
inConf((936442, 936375), 936375).
conf(897581, 897198).
inConf((897581, 897198), 897581).
inConf((897581, 897198), 897198).
conf(2044864, 936375).
inConf((2044864, 936375), 2044864).
inConf((2044864, 936375), 936375).
conf(1057424, 1057014).
inConf((1057424, 1057014), 1057424).
inConf((1057424, 1057014), 1057014).
conf(1057195, 1057014).
inConf((1057195, 1057014), 1057195).
inConf((1057195, 1057014), 1057014).
conf(286629, 1432023).
inConf((286629, 1432023), 286629).
inConf((286629, 1432023), 1432023).
conf(9756, 1844500).
inConf((9756, 1844500), 9756).
inConf((9756, 1844500), 1844500).
conf(936527, 936375).
inConf((936527, 936375), 936527).
inConf((936527, 936375), 936375).
conf(897437, 897198).
inConf((897437, 897198), 897437).
inConf((897437, 897198), 897198).
conf(1057460, 1057014).
inConf((1057460, 1057014), 1057460).
inConf((1057460, 1057014), 1057014).
conf(457914, 1057014).
inConf((457914, 1057014), 457914).
inConf((457914, 1057014), 1057014).
conf(40939, 51581).
inConf((40939, 51581), 40939).
inConf((40939, 51581), 51581).
conf(936792, 936375).
inConf((936792, 936375), 936792).
inConf((936792, 936375), 936375).
conf(1788642, 46324).
inConf((1788642, 46324), 1788642).
inConf((1788642, 46324), 46324).
conf(1057051, 1057014).
inConf((1057051, 1057014), 1057051).
inConf((1057051, 1057014), 1057014).
conf(936563, 936375).
inConf((936563, 936375), 936563).
inConf((936563, 936375), 936375).
conf(897702, 897198).
inConf((897702, 897198), 897702).
inConf((897702, 897198), 897198).
conf(1370227, 1872796).
inConf((1370227, 1872796), 1370227).
inConf((1370227, 1872796), 1872796).
conf(1057316, 1057014).
inConf((1057316, 1057014), 1057316).
inConf((1057316, 1057014), 1057014).
conf(897293, 897198).
inConf((897293, 897198), 897293).
inConf((897293, 897198), 897198).
conf(936828, 936375).
inConf((936828, 936375), 936828).
inConf((936828, 936375), 936375).
conf(345, 1960334).
inConf((345, 1960334), 345).
inConf((345, 1960334), 1960334).
conf(936419, 936375).
inConf((936419, 936375), 936419).
inConf((936419, 936375), 936375).
conf(897198, 897558).
inConf((897198, 897558), 897198).
inConf((897198, 897558), 897558).
conf(897329, 897198).
inConf((897329, 897198), 897329).
inConf((897329, 897198), 897198).
conf(1057172, 1057014).
inConf((1057172, 1057014), 1057172).
inConf((1057172, 1057014), 1057014).
conf(936684, 936375).
inConf((936684, 936375), 936684).
inConf((936684, 936375), 936375).
conf(1960974, 288455).
inConf((1960974, 288455), 1960974).
inConf((1960974, 288455), 288455).
conf(2, 818940).
inConf((2, 818940), 2).
inConf((2, 818940), 818940).
conf(897414, 897198).
inConf((897414, 897198), 897414).
inConf((897414, 897198), 897198).
conf(1057437, 1057014).
inConf((1057437, 1057014), 1057437).
inConf((1057437, 1057014), 1057014).
conf(1761285, 46829).
inConf((1761285, 46829), 1761285).
inConf((1761285, 46829), 46829).
conf(32584, 1370227).
inConf((32584, 1370227), 32584).
inConf((32584, 1370227), 1370227).
conf(1057028, 1057014).
inConf((1057028, 1057014), 1057028).
inConf((1057028, 1057014), 1057014).
conf(936540, 936375).
inConf((936540, 936375), 936540).
inConf((936540, 936375), 936375).
conf(2048389, 897198).
inConf((2048389, 897198), 2048389).
inConf((2048389, 897198), 897198).
conf(897198, 897679).
inConf((897198, 897679), 897198).
inConf((897198, 897679), 897679).
conf(897450, 897198).
inConf((897450, 897198), 897450).
inConf((897450, 897198), 897198).
conf(1057293, 1057014).
inConf((1057293, 1057014), 1057293).
inConf((1057293, 1057014), 1057014).
conf(936805, 936375).
inConf((936805, 936375), 936805).
inConf((936805, 936375), 936375).
conf(2007730, 2028695).
inConf((2007730, 2028695), 2007730).
inConf((2007730, 2028695), 2028695).
conf(2036760, 338730).
inConf((2036760, 338730), 2036760).
inConf((2036760, 338730), 338730).
conf(936396, 936375).
inConf((936396, 936375), 936396).
inConf((936396, 936375), 936375).
conf(897198, 897535).
inConf((897198, 897535), 897198).
inConf((897198, 897535), 897535).
conf(46324, 1789149).
inConf((46324, 1789149), 46324).
inConf((46324, 1789149), 1789149).
conf(1057014, 1057558).
inConf((1057014, 1057558), 1057014).
inConf((1057014, 1057558), 1057558).
conf(2045672, 936375).
inConf((2045672, 936375), 2045672).
inConf((2045672, 936375), 936375).
conf(897306, 897198).
inConf((897306, 897198), 897306).
inConf((897306, 897198), 897198).
conf(1057149, 1057014).
inConf((1057149, 1057014), 1057149).
inConf((1057149, 1057014), 1057014).
conf(936661, 936375).
inConf((936661, 936375), 936661).
inConf((936661, 936375), 936375).
conf(368001, 858749).
inConf((368001, 858749), 368001).
inConf((368001, 858749), 858749).
conf(43864, 1760796).
inConf((43864, 1760796), 43864).
inConf((43864, 1760796), 1760796).
conf(897571, 897198).
inConf((897571, 897198), 897571).
inConf((897571, 897198), 897198).
conf(1371003, 897198).
inConf((1371003, 897198), 1371003).
inConf((1371003, 897198), 897198).
conf(1057414, 1057014).
inConf((1057414, 1057014), 1057414).
inConf((1057414, 1057014), 1057014).
conf(1513220, 286447).
inConf((1513220, 286447), 1513220).
inConf((1513220, 286447), 286447).
conf(1845738, 288455).
inConf((1845738, 288455), 1845738).
inConf((1845738, 288455), 288455).
conf(1057185, 1057014).
inConf((1057185, 1057014), 1057185).
inConf((1057185, 1057014), 1057014).
conf(936517, 936375).
inConf((936517, 936375), 936517).
inConf((936517, 936375), 936375).
conf(1872930, 1370227).
inConf((1872930, 1370227), 1872930).
inConf((1872930, 1370227), 1370227).
conf(897427, 897198).
inConf((897427, 897198), 897427).
inConf((897427, 897198), 897198).
conf(1057014, 1057270).
inConf((1057014, 1057270), 1057014).
inConf((1057014, 1057270), 1057270).
conf(936782, 936375).
inConf((936782, 936375), 936782).
inConf((936782, 936375), 936375).
conf(1057041, 1057014).
inConf((1057041, 1057014), 1057041).
inConf((1057041, 1057014), 1057014).
conf(1873195, 1370227).
inConf((1873195, 1370227), 1873195).
inConf((1873195, 1370227), 1370227).
conf(897692, 897198).
inConf((897692, 897198), 897692).
inConf((897692, 897198), 897198).
conf(2054280, 936375).
inConf((2054280, 936375), 2054280).
inConf((2054280, 936375), 936375).
conf(1057014, 1057535).
inConf((1057014, 1057535), 1057014).
inConf((1057014, 1057535), 1057535).
conf(897283, 897198).
inConf((897283, 897198), 897283).
inConf((897283, 897198), 897198).
conf(1057306, 1057014).
inConf((1057306, 1057014), 1057306).
inConf((1057306, 1057014), 1057014).
conf(936638, 936375).
inConf((936638, 936375), 936638).
inConf((936638, 936375), 936375).
conf(1373246, 936375).
inConf((1373246, 936375), 1373246).
inConf((1373246, 936375), 936375).
conf(936409, 936375).
inConf((936409, 936375), 936409).
inConf((936409, 936375), 936375).
conf(897548, 897198).
inConf((897548, 897198), 897548).
inConf((897548, 897198), 897198).
conf(1057571, 1057014).
inConf((1057571, 1057014), 1057571).
inConf((1057571, 1057014), 1057014).
conf(286629, 1432399).
inConf((286629, 1432399), 286629).
inConf((286629, 1432399), 1432399).
conf(1938387, 9695).
inConf((1938387, 9695), 1938387).
inConf((1938387, 9695), 9695).
conf(1057162, 1057014).
inConf((1057162, 1057014), 1057162).
inConf((1057162, 1057014), 1057014).
conf(936674, 936375).
inConf((936674, 936375), 936674).
inConf((936674, 936375), 936375).
conf(761072, 81444).
inConf((761072, 81444), 761072).
inConf((761072, 81444), 81444).
conf(1844848, 288455).
inConf((1844848, 288455), 1844848).
inConf((1844848, 288455), 288455).
conf(897404, 897198).
inConf((897404, 897198), 897404).
inConf((897404, 897198), 897198).
conf(1057427, 1057014).
inConf((1057427, 1057014), 1057427).
inConf((1057427, 1057014), 1057014).
conf(46489, 324564).
inConf((46489, 324564), 46489).
inConf((46489, 324564), 324564).
conf(936759, 936375).
inConf((936759, 936375), 936759).
inConf((936759, 936375), 936375).
conf(45848, 66865).
inConf((45848, 66865), 45848).
inConf((45848, 66865), 66865).
conf(1373367, 936375).
inConf((1373367, 936375), 1373367).
inConf((1373367, 936375), 936375).
conf(936530, 936375).
inConf((936530, 936375), 936530).
inConf((936530, 936375), 936375).
conf(897669, 897198).
inConf((897669, 897198), 897669).
inConf((897669, 897198), 897198).
conf(897260, 897198).
inConf((897260, 897198), 897260).
inConf((897260, 897198), 897198).
conf(1057283, 1057014).
inConf((1057283, 1057014), 1057283).
inConf((1057283, 1057014), 1057014).
conf(1513089, 286447).
inConf((1513089, 286447), 1513089).
inConf((1513089, 286447), 286447).
conf(936795, 936375).
inConf((936795, 936375), 936795).
inConf((936795, 936375), 936375).
conf(1760228, 46829).
inConf((1760228, 46829), 1760228).
inConf((1760228, 46829), 46829).
conf(1361104, 1378533).
inConf((1361104, 1378533), 1361104).
inConf((1361104, 1378533), 1378533).
conf(936386, 936375).
inConf((936386, 936375), 936386).
inConf((936386, 936375), 936375).
conf(897525, 897198).
inConf((897525, 897198), 897525).
inConf((897525, 897198), 897198).
conf(1057548, 1057014).
inConf((1057548, 1057014), 1057548).
inConf((1057548, 1057014), 1057014).
conf(897296, 897198).
inConf((897296, 897198), 897296).
inConf((897296, 897198), 897198).
conf(2051898, 936375).
inConf((2051898, 936375), 2051898).
inConf((2051898, 936375), 936375).
conf(1057139, 1057014).
inConf((1057139, 1057014), 1057139).
inConf((1057139, 1057014), 1057014).
conf(936651, 936375).
inConf((936651, 936375), 936651).
inConf((936651, 936375), 936375).
conf(897381, 897198).
inConf((897381, 897198), 897381).
inConf((897381, 897198), 897198).
conf(1057404, 1057014).
inConf((1057404, 1057014), 1057404).
inConf((1057404, 1057014), 1057014).
conf(1844572, 1368695).
inConf((1844572, 1368695), 1844572).
inConf((1844572, 1368695), 1368695).
conf(936507, 936375).
inConf((936507, 936375), 936507).
inConf((936507, 936375), 936375).
conf(897646, 897198).
inConf((897646, 897198), 897646).
inConf((897646, 897198), 897198).
conf(333300, 936375).
inConf((333300, 936375), 333300).
inConf((333300, 936375), 936375).
conf(897417, 897198).
inConf((897417, 897198), 897417).
inConf((897417, 897198), 897198).
conf(1057260, 1057014).
inConf((1057260, 1057014), 1057260).
inConf((1057260, 1057014), 1057014).
conf(936772, 936375).
inConf((936772, 936375), 936772).
inConf((936772, 936375), 936375).
conf(1057014, 1057031).
inConf((1057014, 1057031), 1057014).
inConf((1057014, 1057031), 1057031).
conf(897682, 897198).
inConf((897682, 897198), 897682).
inConf((897682, 897198), 897198).
conf(866140, 416214).
inConf((866140, 416214), 866140).
inConf((866140, 416214), 416214).
conf(1057525, 1057014).
inConf((1057525, 1057014), 1057525).
inConf((1057525, 1057014), 1057014).
conf(897273, 897198).
inConf((897273, 897198), 897273).
inConf((897273, 897198), 897198).
conf(2041032, 132151).
inConf((2041032, 132151), 2041032).
inConf((2041032, 132151), 132151).
conf(1363408, 1539971).
inConf((1363408, 1539971), 1363408).
inConf((1363408, 1539971), 1539971).
conf(1057116, 1057014).
inConf((1057116, 1057014), 1057116).
inConf((1057116, 1057014), 1057014).
conf(936628, 936375).
inConf((936628, 936375), 936628).
inConf((936628, 936375), 936375).
conf(897538, 897198).
inConf((897538, 897198), 897538).
inConf((897538, 897198), 897198).
conf(1057381, 1057014).
inConf((1057381, 1057014), 1057381).
inConf((1057381, 1057014), 1057014).
conf(1057152, 1057014).
inConf((1057152, 1057014), 1057152).
inConf((1057152, 1057014), 1057014).
conf(2048384, 936375).
inConf((2048384, 936375), 2048384).
inConf((2048384, 936375), 936375).
conf(936484, 936375).
inConf((936484, 936375), 936484).
inConf((936484, 936375), 936375).
conf(1539756, 860325).
inConf((1539756, 860325), 1539756).
inConf((1539756, 860325), 860325).
conf(43864, 16659).
inConf((43864, 16659), 43864).
inConf((43864, 16659), 16659).
conf(1057417, 1057014).
inConf((1057417, 1057014), 1057417).
inConf((1057417, 1057014), 1057014).
conf(897394, 897198).
inConf((897394, 897198), 897394).
inConf((897394, 897198), 897198).
conf(936749, 936375).
inConf((936749, 936375), 936749).
inConf((936749, 936375), 936375).
conf(46829, 1760182).
inConf((46829, 1760182), 46829).
inConf((46829, 1760182), 1760182).
conf(936520, 936375).
inConf((936520, 936375), 936520).
inConf((936520, 936375), 936375).
conf(897659, 897198).
inConf((897659, 897198), 897659).
inConf((897659, 897198), 897198).
conf(2054827, 1057014).
inConf((2054827, 1057014), 2054827).
inConf((2054827, 1057014), 1057014).
conf(1057502, 1057014).
inConf((1057502, 1057014), 1057502).
inConf((1057502, 1057014), 1057014).
conf(897250, 897198).
inConf((897250, 897198), 897250).
inConf((897250, 897198), 897198).
conf(1057273, 1057014).
inConf((1057273, 1057014), 1057273).
inConf((1057273, 1057014), 1057014).
conf(936605, 936375).
inConf((936605, 936375), 936605).
inConf((936605, 936375), 936375).
conf(936376, 936375).
inConf((936376, 936375), 936376).
inConf((936376, 936375), 936375).
conf(1734194, 9695).
inConf((1734194, 9695), 1734194).
inConf((1734194, 9695), 9695).
conf(897515, 897198).
inConf((897515, 897198), 897515).
inConf((897515, 897198), 897198).
conf(1057538, 1057014).
inConf((1057538, 1057014), 1057538).
inConf((1057538, 1057014), 1057014).
conf(2043163, 1057014).
inConf((2043163, 1057014), 2043163).
inConf((2043163, 1057014), 1057014).
conf(1057129, 1057014).
inConf((1057129, 1057014), 1057129).
inConf((1057129, 1057014), 1057014).
conf(936641, 936375).
inConf((936641, 936375), 936641).
inConf((936641, 936375), 936375).
conf(897371, 897198).
inConf((897371, 897198), 897371).
inConf((897371, 897198), 897198).
conf(1057394, 1057014).
inConf((1057394, 1057014), 1057394).
inConf((1057394, 1057014), 1057014).
conf(286629, 1432222).
inConf((286629, 1432222), 286629).
inConf((286629, 1432222), 1432222).
conf(1363408, 1539840).
inConf((1363408, 1539840), 1363408).
inConf((1363408, 1539840), 1539840).
conf(936726, 936375).
inConf((936726, 936375), 936726).
inConf((936726, 936375), 936375).
conf(936497, 936375).
inConf((936497, 936375), 936497).
inConf((936497, 936375), 936375).
conf(1955507, 858749).
inConf((1955507, 858749), 1955507).
inConf((1955507, 858749), 858749).
conf(897636, 897198).
inConf((897636, 897198), 897636).
inConf((897636, 897198), 897198).
conf(897227, 897198).
inConf((897227, 897198), 897227).
inConf((897227, 897198), 897198).
conf(1057250, 1057014).
inConf((1057250, 1057014), 1057250).
inConf((1057250, 1057014), 1057014).
conf(936762, 936375).
inConf((936762, 936375), 936762).
inConf((936762, 936375), 936375).
conf(1900137, 1067286).
inConf((1900137, 1067286), 1900137).
inConf((1900137, 1067286), 1067286).
conf(897492, 897198).
inConf((897492, 897198), 897492).
inConf((897492, 897198), 897198).
conf(1057515, 1057014).
inConf((1057515, 1057014), 1057515).
inConf((1057515, 1057014), 1057014).
conf(897198, 897263).
inConf((897198, 897263), 897198).
inConf((897198, 897263), 897263).
conf(1057106, 1057014).
inConf((1057106, 1057014), 1057106).
inConf((1057106, 1057014), 1057014).
conf(936618, 936375).
inConf((936618, 936375), 936618).
inConf((936618, 936375), 936375).
conf(2050553, 936375).
inConf((2050553, 936375), 2050553).
inConf((2050553, 936375), 936375).
conf(491305, 2017218).
inConf((491305, 2017218), 491305).
inConf((491305, 2017218), 2017218).
conf(897528, 897198).
inConf((897528, 897198), 897528).
inConf((897528, 897198), 897198).
conf(1057371, 1057014).
inConf((1057371, 1057014), 1057371).
inConf((1057371, 1057014), 1057014).
conf(1370227, 1872622).
inConf((1370227, 1872622), 1370227).
inConf((1370227, 1872622), 1872622).
conf(936474, 936375).
inConf((936474, 936375), 936474).
inConf((936474, 936375), 936375).
conf(1370227, 1872213).
inConf((1370227, 1872213), 1370227).
inConf((1370227, 1872213), 1872213).
conf(897613, 897198).
inConf((897613, 897198), 897613).
inConf((897613, 897198), 897198).
conf(897384, 897198).
inConf((897384, 897198), 897384).
inConf((897384, 897198), 897198).
conf(860325, 1539517).
inConf((860325, 1539517), 860325).
inConf((860325, 1539517), 1539517).
conf(1057227, 1057014).
inConf((1057227, 1057014), 1057227).
inConf((1057227, 1057014), 1057014).
conf(936739, 936375).
inConf((936739, 936375), 936739).
inConf((936739, 936375), 936375).
conf(897649, 897198).
inConf((897649, 897198), 897649).
inConf((897649, 897198), 897198).
conf(1057492, 1057014).
inConf((1057492, 1057014), 1057492).
inConf((1057492, 1057014), 1057014).
conf(897240, 897198).
inConf((897240, 897198), 897240).
inConf((897240, 897198), 897198).
conf(1057014, 1057263).
inConf((1057014, 1057263), 1057014).
inConf((1057014, 1057263), 1057263).
conf(1815960, 48761).
inConf((1815960, 48761), 1815960).
inConf((1815960, 48761), 48761).
conf(936595, 936375).
inConf((936595, 936375), 936595).
inConf((936595, 936375), 936375).
conf(456682, 38535).
inConf((456682, 38535), 456682).
inConf((456682, 38535), 38535).
conf(897505, 897198).
inConf((897505, 897198), 897505).
inConf((897505, 897198), 897198).
conf(1057348, 1057014).
inConf((1057348, 1057014), 1057348).
inConf((1057348, 1057014), 1057014).
conf(1057014, 1057119).
inConf((1057014, 1057119), 1057014).
inConf((1057014, 1057119), 1057119).
conf(936451, 936375).
inConf((936451, 936375), 936451).
inConf((936451, 936375), 936375).
conf(897361, 897198).
inConf((897361, 897198), 897361).
inConf((897361, 897198), 897198).
conf(1057384, 1057014).
inConf((1057384, 1057014), 1057384).
inConf((1057384, 1057014), 1057014).
conf(1361104, 432778).
inConf((1361104, 432778), 1361104).
inConf((1361104, 432778), 432778).
conf(936716, 936375).
inConf((936716, 936375), 936716).
inConf((936716, 936375), 936375).
conf(43600, 1872607).
inConf((43600, 1872607), 43600).
inConf((43600, 1872607), 1872607).
conf(936487, 936375).
inConf((936487, 936375), 936487).
inConf((936487, 936375), 936375).
conf(897626, 897198).
inConf((897626, 897198), 897626).
inConf((897626, 897198), 897198).
conf(2, 802119).
inConf((2, 802119), 2).
inConf((2, 802119), 802119).
conf(43600, 1871969).
inConf((43600, 1871969), 43600).
inConf((43600, 1871969), 1871969).
conf(1057469, 1057014).
inConf((1057469, 1057014), 1057469).
inConf((1057469, 1057014), 1057014).
conf(1375933, 897198).
inConf((1375933, 897198), 1375933).
inConf((1375933, 897198), 897198).
conf(1057240, 1057014).
inConf((1057240, 1057014), 1057240).
inConf((1057240, 1057014), 1057014).
conf(897217, 897198).
inConf((897217, 897198), 897217).
inConf((897217, 897198), 897198).
conf(936572, 936375).
inConf((936572, 936375), 936572).
inConf((936572, 936375), 936375).
conf(290572, 761125).
inConf((290572, 761125), 290572).
inConf((290572, 761125), 761125).
conf(897482, 897198).
inConf((897482, 897198), 897482).
inConf((897482, 897198), 897198).
conf(1057505, 1057014).
inConf((1057505, 1057014), 1057505).
inConf((1057505, 1057014), 1057014).
conf(936837, 936375).
inConf((936837, 936375), 936837).
inConf((936837, 936375), 936375).
conf(1057096, 1057014).
inConf((1057096, 1057014), 1057096).
inConf((1057096, 1057014), 1057014).
conf(936608, 936375).
inConf((936608, 936375), 936608).
inConf((936608, 936375), 936375).
conf(43600, 1872090).
inConf((43600, 1872090), 43600).
inConf((43600, 1872090), 1872090).
conf(2052700, 1057014).
inConf((2052700, 1057014), 2052700).
inConf((2052700, 1057014), 1057014).
conf(1057361, 1057014).
inConf((1057361, 1057014), 1057361).
inConf((1057361, 1057014), 1057014).
conf(369898, 589604).
inConf((369898, 589604), 369898).
inConf((369898, 589604), 589604).
conf(897338, 897198).
inConf((897338, 897198), 897338).
inConf((897338, 897198), 897198).
conf(32160, 1363408).
inConf((32160, 1363408), 32160).
inConf((32160, 1363408), 1363408).
conf(936464, 936375).
inConf((936464, 936375), 936464).
inConf((936464, 936375), 936375).
conf(1788489, 288665).
inConf((1788489, 288665), 1788489).
inConf((1788489, 288665), 288665).
conf(1845047, 288455).
inConf((1845047, 288455), 1845047).
inConf((1845047, 288455), 288455).
conf(897603, 897198).
inConf((897603, 897198), 897603).
inConf((897603, 897198), 897198).
conf(2, 796763).
inConf((2, 796763), 2).
inConf((2, 796763), 796763).
conf(897374, 897198).
inConf((897374, 897198), 897374).
inConf((897374, 897198), 897198).
conf(43600, 1871946).
inConf((43600, 1871946), 43600).
inConf((43600, 1871946), 1871946).
conf(1363408, 1540072).
inConf((1363408, 1540072), 1363408).
inConf((1363408, 1540072), 1540072).
conf(1057217, 1057014).
inConf((1057217, 1057014), 1057217).
inConf((1057217, 1057014), 1057014).
conf(936729, 936375).
inConf((936729, 936375), 936729).
inConf((936729, 936375), 936375).
conf(1370227, 1872468).
inConf((1370227, 1872468), 1370227).
inConf((1370227, 1872468), 1872468).
conf(897459, 897198).
inConf((897459, 897198), 897459).
inConf((897459, 897198), 897198).
conf(1057482, 1057014).
inConf((1057482, 1057014), 1057482).
inConf((1057482, 1057014), 1057014).
conf(1370227, 1872733).
inConf((1370227, 1872733), 1370227).
inConf((1370227, 1872733), 1872733).
conf(897230, 897198).
inConf((897230, 897198), 897230).
inConf((897230, 897198), 897198).
conf(1057073, 1057014).
inConf((1057073, 1057014), 1057073).
inConf((1057073, 1057014), 1057014).
conf(936585, 936375).
inConf((936585, 936375), 936585).
inConf((936585, 936375), 936375).
conf(897198, 897495).
inConf((897198, 897495), 897198).
inConf((897198, 897495), 897495).
conf(43600, 447210).
inConf((43600, 447210), 43600).
inConf((43600, 447210), 447210).
conf(1057338, 1057014).
inConf((1057338, 1057014), 1057338).
inConf((1057338, 1057014), 1057014).
conf(1361104, 1378588).
inConf((1361104, 1378588), 1361104).
inConf((1361104, 1378588), 1378588).
conf(43864, 1760082).
inConf((43864, 1760082), 43864).
inConf((43864, 1760082), 1760082).
conf(39776, 371959).
inConf((39776, 371959), 39776).
inConf((39776, 371959), 371959).
conf(1376576, 936375).
inConf((1376576, 936375), 1376576).
inConf((1376576, 936375), 936375).
conf(936441, 936375).
inConf((936441, 936375), 936441).
inConf((936441, 936375), 936375).
conf(897580, 897198).
inConf((897580, 897198), 897580).
inConf((897580, 897198), 897198).
conf(897198, 897351).
inConf((897198, 897351), 897198).
inConf((897198, 897351), 897351).
conf(491576, 131412).
inConf((491576, 131412), 491576).
inConf((491576, 131412), 131412).
conf(1057194, 1057014).
inConf((1057194, 1057014), 1057194).
inConf((1057194, 1057014), 1057014).
conf(936706, 936375).
inConf((936706, 936375), 936706).
inConf((936706, 936375), 936375).
conf(897616, 897198).
inConf((897616, 897198), 897616).
inConf((897616, 897198), 897198).
conf(1844880, 288455).
inConf((1844880, 288455), 1844880).
inConf((1844880, 288455), 288455).
conf(2052347, 897198).
inConf((2052347, 897198), 2052347).
inConf((2052347, 897198), 897198).
conf(1057459, 1057014).
inConf((1057459, 1057014), 1057459).
inConf((1057459, 1057014), 1057014).
conf(1057230, 1057014).
inConf((1057230, 1057014), 1057230).
inConf((1057230, 1057014), 1057014).
conf(288665, 1788767).
inConf((288665, 1788767), 288665).
inConf((288665, 1788767), 1788767).
conf(1788641, 46324).
inConf((1788641, 46324), 1788641).
inConf((1788641, 46324), 46324).
conf(1944012, 46324).
inConf((1944012, 46324), 1944012).
inConf((1944012, 46324), 46324).
conf(936562, 936375).
inConf((936562, 936375), 936562).
inConf((936562, 936375), 936375).
conf(897472, 897198).
inConf((897472, 897198), 897472).
inConf((897472, 897198), 897198).
conf(1057315, 1057014).
inConf((1057315, 1057014), 1057315).
inConf((1057315, 1057014), 1057014).
conf(936827, 936375).
inConf((936827, 936375), 936827).
inConf((936827, 936375), 936375).
conf(1057086, 1057014).
inConf((1057086, 1057014), 1057086).
inConf((1057086, 1057014), 1057014).
conf(1431914, 286629).
inConf((1431914, 286629), 1431914).
inConf((1431914, 286629), 286629).
conf(936418, 936375).
inConf((936418, 936375), 936418).
inConf((936418, 936375), 936375).
conf(897328, 897198).
inConf((897328, 897198), 897328).
inConf((897328, 897198), 897198).
conf(1057014, 1057351).
inConf((1057014, 1057351), 1057014).
inConf((1057014, 1057351), 1057351).
conf(759913, 2007730).
inConf((759913, 2007730), 759913).
inConf((759913, 2007730), 2007730).
conf(936683, 936375).
inConf((936683, 936375), 936683).
inConf((936683, 936375), 936375).
conf(936454, 936375).
inConf((936454, 936375), 936454).
inConf((936454, 936375), 936375).
conf(897593, 897198).
inConf((897593, 897198), 897593).
inConf((897593, 897198), 897198).
conf(1057014, 1057207).
inConf((1057014, 1057207), 1057014).
inConf((1057014, 1057207), 1057207).
conf(936719, 936375).
inConf((936719, 936375), 936719).
inConf((936719, 936375), 936375).
conf(1372473, 936375).
inConf((1372473, 936375), 1372473).
inConf((1372473, 936375), 936375).
conf(39544, 104986).
inConf((39544, 104986), 39544).
inConf((39544, 104986), 104986).
conf(74912, 2007730).
inConf((74912, 2007730), 74912).
inConf((74912, 2007730), 2007730).
conf(288665, 1789418).
inConf((288665, 1789418), 288665).
inConf((288665, 1789418), 1789418).
conf(897449, 897198).
inConf((897449, 897198), 897449).
inConf((897449, 897198), 897198).
conf(1057472, 1057014).
inConf((1057472, 1057014), 1057472).
inConf((1057472, 1057014), 1057014).
conf(936804, 936375).
inConf((936804, 936375), 936804).
inConf((936804, 936375), 936375).
conf(1057014, 1057063).
inConf((1057014, 1057063), 1057014).
inConf((1057014, 1057063), 1057063).
conf(1371197, 936375).
inConf((1371197, 936375), 1371197).
inConf((1371197, 936375), 936375).
conf(936575, 936375).
inConf((936575, 936375), 936575).
inConf((936575, 936375), 936375).
conf(897714, 897198).
inConf((897714, 897198), 897714).
inConf((897714, 897198), 897198).
conf(897305, 897198).
inConf((897305, 897198), 897305).
inConf((897305, 897198), 897198).
conf(1057328, 1057014).
inConf((1057328, 1057014), 1057328).
inConf((1057328, 1057014), 1057014).
conf(860325, 1539438).
inConf((860325, 1539438), 860325).
inConf((860325, 1539438), 1539438).
conf(43864, 1760301).
inConf((43864, 1760301), 43864).
inConf((43864, 1760301), 1760301).
conf(936840, 936375).
inConf((936840, 936375), 936840).
inConf((936840, 936375), 936375).
conf(125888, 491550).
inConf((125888, 491550), 125888).
inConf((125888, 491550), 491550).
conf(2047154, 1057014).
inConf((2047154, 1057014), 2047154).
inConf((2047154, 1057014), 1057014).
conf(936431, 936375).
inConf((936431, 936375), 936431).
inConf((936431, 936375), 936375).
conf(897570, 897198).
inConf((897570, 897198), 897570).
inConf((897570, 897198), 897198).
conf(897341, 897198).
inConf((897341, 897198), 897341).
inConf((897341, 897198), 897198).
conf(1966953, 2).
inConf((1966953, 2), 1966953).
inConf((1966953, 2), 2).
conf(1057184, 1057014).
inConf((1057184, 1057014), 1057184).
inConf((1057184, 1057014), 1057014).
conf(936696, 936375).
inConf((936696, 936375), 936696).
inConf((936696, 936375), 936375).
conf(286252, 1928039).
inConf((286252, 1928039), 286252).
inConf((286252, 1928039), 1928039).
conf(897426, 897198).
inConf((897426, 897198), 897426).
inConf((897426, 897198), 897198).
conf(1057449, 1057014).
inConf((1057449, 1057014), 1057449).
inConf((1057449, 1057014), 1057014).
conf(132202, 858275).
inConf((132202, 858275), 132202).
inConf((132202, 858275), 858275).
conf(130656, 773777).
inConf((130656, 773777), 130656).
inConf((130656, 773777), 773777).
conf(2056903, 936375).
inConf((2056903, 936375), 2056903).
inConf((2056903, 936375), 936375).
conf(1057040, 1057014).
inConf((1057040, 1057014), 1057040).
inConf((1057040, 1057014), 1057014).
conf(936552, 936375).
inConf((936552, 936375), 936552).
inConf((936552, 936375), 936375).
conf(897691, 897198).
inConf((897691, 897198), 897691).
inConf((897691, 897198), 897198).
conf(1370227, 1872965).
inConf((1370227, 1872965), 1370227).
inConf((1370227, 1872965), 1872965).
conf(1374966, 936375).
inConf((1374966, 936375), 1374966).
inConf((1374966, 936375), 936375).
conf(897462, 897198).
inConf((897462, 897198), 897462).
inConf((897462, 897198), 897198).
conf(1057305, 1057014).
inConf((1057305, 1057014), 1057305).
inConf((1057305, 1057014), 1057014).
conf(936817, 936375).
inConf((936817, 936375), 936817).
inConf((936817, 936375), 936375).
conf(1057076, 1057014).
inConf((1057076, 1057014), 1057076).
inConf((1057076, 1057014), 1057014).
conf(2055985, 897198).
inConf((2055985, 897198), 2055985).
inConf((2055985, 897198), 897198).
conf(1361104, 1377243).
inConf((1361104, 1377243), 1361104).
inConf((1361104, 1377243), 1377243).
conf(936408, 936375).
inConf((936408, 936375), 936408).
inConf((936408, 936375), 936375).
conf(1361104, 1378146).
inConf((1361104, 1378146), 1361104).
inConf((1361104, 1378146), 1378146).
conf(1057570, 1057014).
inConf((1057570, 1057014), 1057570).
inConf((1057570, 1057014), 1057014).
conf(897318, 897198).
inConf((897318, 897198), 897318).
inConf((897318, 897198), 897198).
conf(1512168, 43295).
inConf((1512168, 43295), 1512168).
inConf((1512168, 43295), 43295).
conf(1361104, 1377508).
inConf((1361104, 1377508), 1361104).
inConf((1361104, 1377508), 1377508).
conf(1788752, 46324).
inConf((1788752, 46324), 1788752).
inConf((1788752, 46324), 46324).
conf(2010392, 1057014).
inConf((2010392, 1057014), 2010392).
inConf((2010392, 1057014), 1057014).
conf(1057161, 1057014).
inConf((1057161, 1057014), 1057161).
inConf((1057161, 1057014), 1057014).
conf(936673, 936375).
inConf((936673, 936375), 936673).
inConf((936673, 936375), 936375).
conf(43600, 1873238).
inConf((43600, 1873238), 43600).
inConf((43600, 1873238), 1873238).
conf(897198, 897583).
inConf((897198, 897583), 897198).
inConf((897198, 897583), 897583).
conf(1432434, 286629).
inConf((1432434, 286629), 1432434).
inConf((1432434, 286629), 286629).
conf(1057426, 1057014).
inConf((1057426, 1057014), 1057426).
inConf((1057426, 1057014), 1057014).
conf(1057197, 1057014).
inConf((1057197, 1057014), 1057197).
inConf((1057197, 1057014), 1057014).
conf(589604, 1939318).
inConf((589604, 1939318), 589604).
inConf((589604, 1939318), 1939318).
conf(936529, 936375).
inConf((936529, 936375), 936529).
inConf((936529, 936375), 936375).
conf(2048829, 1057014).
inConf((2048829, 1057014), 2048829).
inConf((2048829, 1057014), 1057014).
conf(43600, 1873094).
inConf((43600, 1873094), 43600).
inConf((43600, 1873094), 1873094).
conf(2046614, 1057014).
inConf((2046614, 1057014), 2046614).
inConf((2046614, 1057014), 1057014).
conf(1057462, 1057014).
inConf((1057462, 1057014), 1057462).
inConf((1057462, 1057014), 1057014).
conf(897198, 897439).
inConf((897198, 897439), 897198).
inConf((897198, 897439), 897439).
conf(936794, 936375).
inConf((936794, 936375), 936794).
inConf((936794, 936375), 936375).
conf(2045073, 1057014).
inConf((2045073, 1057014), 2045073).
inConf((2045073, 1057014), 1057014).
conf(1057053, 1057014).
inConf((1057053, 1057014), 1057053).
inConf((1057053, 1057014), 1057014).
conf(46324, 445788).
inConf((46324, 445788), 46324).
inConf((46324, 445788), 445788).
conf(936565, 936375).
inConf((936565, 936375), 936565).
inConf((936565, 936375), 936375).
conf(489378, 1368695).
inConf((489378, 1368695), 489378).
inConf((489378, 1368695), 1368695).
conf(897704, 897198).
inConf((897704, 897198), 897704).
inConf((897704, 897198), 897198).
conf(1057547, 1057014).
inConf((1057547, 1057014), 1057547).
inConf((1057547, 1057014), 1057014).
conf(897198, 897295).
inConf((897198, 897295), 897198).
inConf((897198, 897295), 897295).
conf(1057318, 1057014).
inConf((1057318, 1057014), 1057318).
inConf((1057318, 1057014), 1057014).
conf(936650, 936375).
inConf((936650, 936375), 936650).
inConf((936650, 936375), 936375).
conf(66003, 9695).
inConf((66003, 9695), 66003).
inConf((66003, 9695), 9695).
conf(936421, 936375).
inConf((936421, 936375), 936421).
inConf((936421, 936375), 936375).
conf(1057014, 2053151).
inConf((1057014, 2053151), 1057014).
inConf((1057014, 2053151), 2053151).
conf(897560, 897198).
inConf((897560, 897198), 897560).
inConf((897560, 897198), 897198).
conf(1057174, 1057014).
inConf((1057174, 1057014), 1057174).
inConf((1057174, 1057014), 1057014).
conf(936686, 936375).
inConf((936686, 936375), 936686).
inConf((936686, 936375), 936375).
conf(897416, 897198).
inConf((897416, 897198), 897416).
inConf((897416, 897198), 897198).
conf(1057014, 1057439).
inConf((1057014, 1057439), 1057014).
inConf((1057014, 1057439), 1057439).
conf(1432267, 286629).
inConf((1432267, 286629), 1432267).
inConf((1432267, 286629), 286629).
conf(936771, 936375).
inConf((936771, 936375), 936771).
inConf((936771, 936375), 936375).
conf(1057014, 1057030).
inConf((1057014, 1057030), 1057014).
inConf((1057014, 1057030), 1057030).
conf(936542, 936375).
inConf((936542, 936375), 936542).
inConf((936542, 936375), 936375).
conf(897681, 897198).
inConf((897681, 897198), 897681).
inConf((897681, 897198), 897198).
conf(130656, 813925).
inConf((130656, 813925), 130656).
inConf((130656, 813925), 813925).
conf(897272, 897198).
inConf((897272, 897198), 897272).
inConf((897272, 897198), 897198).
conf(1057014, 1057295).
inConf((1057014, 1057295), 1057014).
inConf((1057014, 1057295), 1057295).
conf(2048433, 1057014).
inConf((2048433, 1057014), 2048433).
inConf((2048433, 1057014), 1057014).
conf(1539405, 860325).
inConf((1539405, 860325), 1539405).
inConf((1539405, 860325), 860325).
conf(936807, 936375).
inConf((936807, 936375), 936807).
inConf((936807, 936375), 936375).
conf(936398, 936375).
inConf((936398, 936375), 936398).
inConf((936398, 936375), 936375).
conf(1872137, 1370227).
inConf((1872137, 1370227), 1872137).
inConf((1872137, 1370227), 1370227).
conf(897537, 897198).
inConf((897537, 897198), 897537).
inConf((897537, 897198), 897198).
conf(1057560, 1057014).
inConf((1057560, 1057014), 1057560).
inConf((1057560, 1057014), 1057014).
conf(897308, 897198).
inConf((897308, 897198), 897308).
inConf((897308, 897198), 897198).
conf(1512283, 286447).
inConf((1512283, 286447), 1512283).
inConf((1512283, 286447), 286447).
conf(1057014, 1057151).
inConf((1057014, 1057151), 1057014).
inConf((1057014, 1057151), 1057151).
conf(936663, 936375).
inConf((936663, 936375), 936663).
inConf((936663, 936375), 936375).
conf(897573, 897198).
inConf((897573, 897198), 897573).
inConf((897573, 897198), 897198).
conf(1057416, 1057014).
inConf((1057416, 1057014), 1057416).
inConf((1057416, 1057014), 1057014).
conf(132202, 853138).
inConf((132202, 853138), 132202).
inConf((132202, 853138), 853138).
conf(1361104, 1377354).
inConf((1361104, 1377354), 1361104).
inConf((1361104, 1377354), 1377354).
conf(936519, 936375).
inConf((936519, 936375), 936519).
inConf((936519, 936375), 936375).
conf(897658, 897198).
inConf((897658, 897198), 897658).
inConf((897658, 897198), 897198).
conf(897429, 897198).
inConf((897429, 897198), 897429).
inConf((897429, 897198), 897198).
conf(1057272, 1057014).
inConf((1057272, 1057014), 1057272).
inConf((1057272, 1057014), 1057014).
conf(936784, 936375).
inConf((936784, 936375), 936784).
inConf((936784, 936375), 936375).
conf(1370227, 1872523).
inConf((1370227, 1872523), 1370227).
inConf((1370227, 1872523), 1872523).
conf(1057043, 1057014).
inConf((1057043, 1057014), 1057043).
inConf((1057043, 1057014), 1057014).
conf(897694, 897198).
inConf((897694, 897198), 897694).
inConf((897694, 897198), 897198).
conf(1057537, 1057014).
inConf((1057537, 1057014), 1057537).
inConf((1057537, 1057014), 1057014).
conf(897285, 897198).
inConf((897285, 897198), 897285).
inConf((897285, 897198), 897198).
conf(1057308, 1057014).
inConf((1057308, 1057014), 1057308).
inConf((1057308, 1057014), 1057014).
conf(936640, 936375).
inConf((936640, 936375), 936640).
inConf((936640, 936375), 936375).
conf(897198, 897550).
inConf((897198, 897550), 897198).
inConf((897198, 897550), 897550).
conf(1057393, 1057014).
inConf((1057393, 1057014), 1057393).
inConf((1057393, 1057014), 1057014).
conf(1057164, 1057014).
inConf((1057164, 1057014), 1057164).
inConf((1057164, 1057014), 1057014).
conf(936496, 936375).
inConf((936496, 936375), 936496).
inConf((936496, 936375), 936375).
conf(897406, 897198).
inConf((897406, 897198), 897406).
inConf((897406, 897198), 897198).
conf(1057429, 1057014).
inConf((1057429, 1057014), 1057429).
inConf((1057429, 1057014), 1057014).
conf(936761, 936375).
inConf((936761, 936375), 936761).
inConf((936761, 936375), 936375).
conf(1057020, 1057014).
inConf((1057020, 1057014), 1057020).
inConf((1057020, 1057014), 1057014).
conf(936532, 936375).
inConf((936532, 936375), 936532).
inConf((936532, 936375), 936375).
conf(125888, 827239).
inConf((125888, 827239), 125888).
inConf((125888, 827239), 827239).
conf(897198, 897671).
inConf((897198, 897671), 897198).
inConf((897198, 897671), 897671).
conf(1057514, 1057014).
inConf((1057514, 1057014), 1057514).
inConf((1057514, 1057014), 1057014).
conf(897262, 897198).
inConf((897262, 897198), 897262).
inConf((897262, 897198), 897198).
conf(1057285, 1057014).
inConf((1057285, 1057014), 1057285).
inConf((1057285, 1057014), 1057014).
conf(448329, 131762).
inConf((448329, 131762), 448329).
inConf((448329, 131762), 131762).
conf(1486396, 858749).
inConf((1486396, 858749), 1486396).
inConf((1486396, 858749), 858749).
conf(936617, 936375).
inConf((936617, 936375), 936617).
inConf((936617, 936375), 936375).
conf(936388, 936375).
inConf((936388, 936375), 936388).
inConf((936388, 936375), 936375).
conf(897198, 897527).
inConf((897198, 897527), 897198).
inConf((897198, 897527), 897527).
conf(1363408, 1539322).
inConf((1363408, 1539322), 1363408).
inConf((1363408, 1539322), 1539322).
conf(1057014, 1057550).
inConf((1057014, 1057550), 1057014).
inConf((1057014, 1057550), 1057550).
conf(132202, 759751).
inConf((132202, 759751), 132202).
inConf((132202, 759751), 759751).
conf(1057141, 1057014).
inConf((1057141, 1057014), 1057141).
inConf((1057141, 1057014), 1057014).
conf(936653, 936375).
inConf((936653, 936375), 936653).
inConf((936653, 936375), 936375).
conf(897198, 897383).
inConf((897198, 897383), 897198).
inConf((897198, 897383), 897383).
conf(1931672, 46829).
inConf((1931672, 46829), 1931672).
inConf((1931672, 46829), 46829).
conf(1057406, 1057014).
inConf((1057406, 1057014), 1057406).
inConf((1057406, 1057014), 1057014).
conf(936509, 936375).
inConf((936509, 936375), 936509).
inConf((936509, 936375), 936375).
conf(897648, 897198).
inConf((897648, 897198), 897648).
inConf((897648, 897198), 897198).
conf(897419, 897198).
inConf((897419, 897198), 897419).
inConf((897419, 897198), 897198).
conf(1057014, 1057262).
inConf((1057014, 1057262), 1057014).
inConf((1057014, 1057262), 1057262).
conf(936774, 936375).
inConf((936774, 936375), 936774).
inConf((936774, 936375), 936375).
conf(39776, 113277).
inConf((39776, 113277), 39776).
inConf((39776, 113277), 113277).
conf(897504, 897198).
inConf((897504, 897198), 897504).
inConf((897504, 897198), 897198).
conf(1057014, 1057527).
inConf((1057014, 1057527), 1057014).
inConf((1057014, 1057527), 1057527).
conf(897275, 897198).
inConf((897275, 897198), 897275).
inConf((897275, 897198), 897198).
conf(1057118, 1057014).
inConf((1057118, 1057014), 1057118).
inConf((1057118, 1057014), 1057014).
conf(936630, 936375).
inConf((936630, 936375), 936630).
inConf((936630, 936375), 936375).
conf(897540, 897198).
inConf((897540, 897198), 897540).
inConf((897540, 897198), 897198).
conf(43600, 1872112).
inConf((43600, 1872112), 43600).
inConf((43600, 1872112), 1872112).
conf(1057014, 1057383).
inConf((1057014, 1057383), 1057014).
inConf((1057014, 1057383), 1057383).
conf(2008846, 433119).
inConf((2008846, 433119), 2008846).
inConf((2008846, 433119), 433119).
conf(936486, 936375).
inConf((936486, 936375), 936486).
inConf((936486, 936375), 936375).
conf(131412, 767309).
inConf((131412, 767309), 131412).
inConf((131412, 767309), 767309).
conf(897625, 897198).
inConf((897625, 897198), 897625).
inConf((897625, 897198), 897198).
conf(833560, 2).
inConf((833560, 2), 833560).
inConf((833560, 2), 2).
conf(125888, 796605).
inConf((125888, 796605), 125888).
inConf((125888, 796605), 796605).
conf(897396, 897198).
inConf((897396, 897198), 897396).
inConf((897396, 897198), 897198).
conf(1375029, 897198).
inConf((1375029, 897198), 1375029).
inConf((1375029, 897198), 897198).
conf(1057014, 1057239).
inConf((1057014, 1057239), 1057014).
inConf((1057014, 1057239), 1057239).
conf(936751, 936375).
inConf((936751, 936375), 936751).
inConf((936751, 936375), 936375).
conf(897661, 897198).
inConf((897661, 897198), 897661).
inConf((897661, 897198), 897198).
conf(1057504, 1057014).
inConf((1057504, 1057014), 1057504).
inConf((1057504, 1057014), 1057014).
conf(1844576, 42124).
inConf((1844576, 42124), 1844576).
inConf((1844576, 42124), 42124).
conf(897252, 897198).
inConf((897252, 897198), 897252).
inConf((897252, 897198), 897198).
conf(1057275, 1057014).
inConf((1057275, 1057014), 1057275).
inConf((1057275, 1057014), 1057014).
conf(936607, 936375).
inConf((936607, 936375), 936607).
inConf((936607, 936375), 936375).
conf(936378, 936375).
inConf((936378, 936375), 936378).
inConf((936378, 936375), 936375).
conf(897517, 897198).
inConf((897517, 897198), 897517).
inConf((897517, 897198), 897198).
conf(1057360, 1057014).
inConf((1057360, 1057014), 1057360).
inConf((1057360, 1057014), 1057014).
conf(1057131, 1057014).
inConf((1057131, 1057014), 1057131).
inConf((1057131, 1057014), 1057014).
conf(936463, 936375).
inConf((936463, 936375), 936463).
inConf((936463, 936375), 936375).
conf(897373, 897198).
inConf((897373, 897198), 897373).
inConf((897373, 897198), 897198).
conf(1057396, 1057014).
inConf((1057396, 1057014), 1057396).
inConf((1057396, 1057014), 1057014).
conf(936728, 936375).
inConf((936728, 936375), 936728).
inConf((936728, 936375), 936375).
conf(2, 1934411).
inConf((2, 1934411), 2).
inConf((2, 1934411), 1934411).
conf(936499, 936375).
inConf((936499, 936375), 936499).
inConf((936499, 936375), 936375).
conf(897638, 897198).
inConf((897638, 897198), 897638).
inConf((897638, 897198), 897198).
conf(897229, 897198).
inConf((897229, 897198), 897229).
inConf((897229, 897198), 897198).
conf(1057252, 1057014).
inConf((1057252, 1057014), 1057252).
inConf((1057252, 1057014), 1057014).
conf(936764, 936375).
inConf((936764, 936375), 936764).
inConf((936764, 936375), 936375).
conf(858749, 1487037).
inConf((858749, 1487037), 858749).
inConf((858749, 1487037), 1487037).
conf(125888, 855).
inConf((125888, 855), 125888).
inConf((125888, 855), 855).
conf(2045086, 897198).
inConf((2045086, 897198), 2045086).
inConf((2045086, 897198), 897198).
conf(1057517, 1057014).
inConf((1057517, 1057014), 1057517).
inConf((1057517, 1057014), 1057014).
conf(897494, 897198).
inConf((897494, 897198), 897494).
inConf((897494, 897198), 897198).
conf(1057108, 1057014).
inConf((1057108, 1057014), 1057108).
inConf((1057108, 1057014), 1057014).
conf(936620, 936375).
inConf((936620, 936375), 936620).
inConf((936620, 936375), 936375).
conf(897350, 897198).
inConf((897350, 897198), 897350).
inConf((897350, 897198), 897198).
conf(1057373, 1057014).
inConf((1057373, 1057014), 1057373).
inConf((1057373, 1057014), 1057014).
conf(936476, 936375).
inConf((936476, 936375), 936476).
inConf((936476, 936375), 936375).
conf(897198, 897615).
inConf((897198, 897615), 897198).
inConf((897198, 897615), 897615).
conf(2051894, 1057014).
inConf((2051894, 1057014), 2051894).
inConf((2051894, 1057014), 1057014).
conf(897386, 897198).
inConf((897386, 897198), 897386).
inConf((897386, 897198), 897198).
conf(1057229, 1057014).
inConf((1057229, 1057014), 1057229).
inConf((1057229, 1057014), 1057014).
conf(936741, 936375).
inConf((936741, 936375), 936741).
inConf((936741, 936375), 936375).
conf(1789440, 288665).
inConf((1789440, 288665), 1789440).
inConf((1789440, 288665), 288665).
conf(897198, 897471).
inConf((897198, 897471), 897198).
inConf((897198, 897471), 897471).
conf(1057494, 1057014).
inConf((1057494, 1057014), 1057494).
inConf((1057494, 1057014), 1057014).
conf(897242, 897198).
inConf((897242, 897198), 897242).
inConf((897242, 897198), 897198).
conf(1057085, 1057014).
inConf((1057085, 1057014), 1057085).
inConf((1057085, 1057014), 1057014).
conf(936597, 936375).
inConf((936597, 936375), 936597).
inConf((936597, 936375), 936375).
conf(43864, 1760732).
inConf((43864, 1760732), 43864).
inConf((43864, 1760732), 1760732).
conf(897507, 897198).
inConf((897507, 897198), 897507).
inConf((897507, 897198), 897198).
conf(1057350, 1057014).
inConf((1057350, 1057014), 1057350).
inConf((1057350, 1057014), 1057014).
conf(1057121, 1057014).
inConf((1057121, 1057014), 1057121).
inConf((1057121, 1057014), 1057014).
conf(936453, 936375).
inConf((936453, 936375), 936453).
inConf((936453, 936375), 936375).
conf(761872, 500261).
inConf((761872, 500261), 761872).
inConf((761872, 500261), 500261).
conf(1734042, 9695).
inConf((1734042, 9695), 1734042).
inConf((1734042, 9695), 9695).
conf(897363, 897198).
inConf((897363, 897198), 897363).
inConf((897363, 897198), 897198).
conf(1057206, 1057014).
inConf((1057206, 1057014), 1057206).
inConf((1057206, 1057014), 1057014).
conf(936718, 936375).
inConf((936718, 936375), 936718).
inConf((936718, 936375), 936375).
conf(1370227, 1872228).
inConf((1370227, 1872228), 1370227).
inConf((1370227, 1872228), 1872228).
conf(897628, 897198).
inConf((897628, 897198), 897628).
inConf((897628, 897198), 897198).
conf(1363408, 1540097).
inConf((1363408, 1540097), 1363408).
inConf((1363408, 1540097), 1540097).
conf(1057014, 1057471).
inConf((1057014, 1057471), 1057014).
inConf((1057014, 1057471), 1057471).
conf(897219, 897198).
inConf((897219, 897198), 897219).
inConf((897219, 897198), 897198).
conf(1057242, 1057014).
inConf((1057242, 1057014), 1057242).
inConf((1057242, 1057014), 1057014).
conf(936574, 936375).
inConf((936574, 936375), 936574).
inConf((936574, 936375), 936375).
conf(897484, 897198).
inConf((897484, 897198), 897484).
inConf((897484, 897198), 897198).
conf(286252, 1431445).
inConf((286252, 1431445), 286252).
inConf((286252, 1431445), 1431445).
conf(1057507, 1057014).
inConf((1057507, 1057014), 1057507).
inConf((1057507, 1057014), 1057014).
conf(822226, 131762).
inConf((822226, 131762), 822226).
inConf((822226, 131762), 131762).
conf(936839, 936375).
inConf((936839, 936375), 936839).
inConf((936839, 936375), 936375).
conf(1057098, 1057014).
inConf((1057098, 1057014), 1057098).
inConf((1057098, 1057014), 1057014).
conf(936610, 936375).
inConf((936610, 936375), 936610).
inConf((936610, 936375), 936375).
conf(1376694, 897198).
inConf((1376694, 897198), 1376694).
inConf((1376694, 897198), 897198).
conf(1845013, 288455).
inConf((1845013, 288455), 1845013).
inConf((1845013, 288455), 288455).
conf(1900137, 2040814).
inConf((1900137, 2040814), 1900137).
inConf((1900137, 2040814), 2040814).
conf(897340, 897198).
inConf((897340, 897198), 897340).
inConf((897340, 897198), 897198).
conf(1057363, 1057014).
inConf((1057363, 1057014), 1057363).
inConf((1057363, 1057014), 1057014).
conf(43864, 1953385).
inConf((43864, 1953385), 43864).
inConf((43864, 1953385), 1953385).
conf(936695, 936375).
inConf((936695, 936375), 936695).
inConf((936695, 936375), 936375).
conf(1373303, 936375).
inConf((1373303, 936375), 1373303).
inConf((1373303, 936375), 936375).
conf(936466, 936375).
inConf((936466, 936375), 936466).
inConf((936466, 936375), 936375).
conf(1539064, 860325).
inConf((1539064, 860325), 1539064).
inConf((1539064, 860325), 860325).
conf(43600, 1872357).
inConf((43600, 1872357), 43600).
inConf((43600, 1872357), 1872357).
conf(1370227, 1873108).
inConf((1370227, 1873108), 1370227).
inConf((1370227, 1873108), 1873108).
conf(897605, 897198).
inConf((897605, 897198), 897605).
inConf((897605, 897198), 897198).
conf(1057219, 1057014).
inConf((1057219, 1057014), 1057219).
inConf((1057219, 1057014), 1057014).
conf(26675, 858749).
inConf((26675, 858749), 26675).
inConf((26675, 858749), 858749).
conf(1968120, 2).
inConf((1968120, 2), 1968120).
inConf((1968120, 2), 2).
conf(936731, 936375).
inConf((936731, 936375), 936731).
inConf((936731, 936375), 936375).
conf(897461, 897198).
inConf((897461, 897198), 897461).
inConf((897461, 897198), 897198).
conf(1057484, 1057014).
inConf((1057484, 1057014), 1057484).
inConf((1057484, 1057014), 1057014).
conf(2043612, 936375).
inConf((2043612, 936375), 2043612).
inConf((2043612, 936375), 936375).
conf(897232, 897198).
inConf((897232, 897198), 897232).
inConf((897232, 897198), 897198).
conf(18081, 860325).
inConf((18081, 860325), 18081).
inConf((18081, 860325), 860325).
conf(1761332, 46829).
inConf((1761332, 46829), 1761332).
inConf((1761332, 46829), 46829).
conf(1375639, 936375).
inConf((1375639, 936375), 1375639).
inConf((1375639, 936375), 936375).
conf(936816, 936375).
inConf((936816, 936375), 936816).
inConf((936816, 936375), 936375).
conf(1057075, 1057014).
inConf((1057075, 1057014), 1057075).
inConf((1057075, 1057014), 1057014).
conf(936587, 936375).
inConf((936587, 936375), 936587).
inConf((936587, 936375), 936375).
conf(897198, 1376671).
inConf((897198, 1376671), 897198).
inConf((897198, 1376671), 1376671).
conf(1760923, 46829).
inConf((1760923, 46829), 1760923).
inConf((1760923, 46829), 46829).
conf(288665, 1789286).
inConf((288665, 1789286), 288665).
inConf((288665, 1789286), 1789286).
conf(897317, 897198).
inConf((897317, 897198), 897317).
inConf((897317, 897198), 897198).
conf(1057340, 1057014).
inConf((1057340, 1057014), 1057340).
inConf((1057340, 1057014), 1057014).
conf(43864, 1760313).
inConf((43864, 1760313), 43864).
inConf((43864, 1760313), 1760313).
conf(2048572, 936375).
inConf((2048572, 936375), 2048572).
inConf((2048572, 936375), 936375).
conf(43600, 25468).
inConf((43600, 25468), 43600).
inConf((43600, 25468), 25468).
conf(936443, 936375).
inConf((936443, 936375), 936443).
inConf((936443, 936375), 936375).
conf(897582, 897198).
inConf((897582, 897198), 897582).
inConf((897582, 897198), 897198).
conf(897353, 897198).
inConf((897353, 897198), 897353).
inConf((897353, 897198), 897198).
conf(2044636, 936375).
inConf((2044636, 936375), 2044636).
inConf((2044636, 936375), 936375).
conf(1361104, 1973952).
inConf((1361104, 1973952), 1361104).
inConf((1361104, 1973952), 1973952).
conf(1057196, 1057014).
inConf((1057196, 1057014), 1057196).
inConf((1057196, 1057014), 1057014).
conf(936708, 936375).
inConf((936708, 936375), 936708).
inConf((936708, 936375), 936375).
conf(74113, 9756).
inConf((74113, 9756), 74113).
inConf((74113, 9756), 9756).
conf(46829, 1760815).
inConf((46829, 1760815), 46829).
inConf((46829, 1760815), 1760815).
conf(897618, 897198).
inConf((897618, 897198), 897618).
inConf((897618, 897198), 897198).
conf(1057461, 1057014).
inConf((1057461, 1057014), 1057461).
inConf((1057461, 1057014), 1057014).
conf(2043589, 936375).
inConf((2043589, 936375), 2043589).
inConf((2043589, 936375), 936375).
conf(897209, 897198).
inConf((897209, 897198), 897209).
inConf((897209, 897198), 897198).
conf(1057052, 1057014).
inConf((1057052, 1057014), 1057052).
inConf((1057052, 1057014), 1057014).
conf(936564, 936375).
inConf((936564, 936375), 936564).
inConf((936564, 936375), 936375).
conf(897198, 897703).
inConf((897198, 897703), 897198).
inConf((897198, 897703), 897703).
conf(897474, 897198).
inConf((897474, 897198), 897474).
inConf((897474, 897198), 897198).
conf(1965827, 860325).
inConf((1965827, 860325), 1965827).
inConf((1965827, 860325), 860325).
conf(1057317, 1057014).
inConf((1057317, 1057014), 1057317).
inConf((1057317, 1057014), 1057014).
conf(936829, 936375).
inConf((936829, 936375), 936829).
inConf((936829, 936375), 936375).
conf(1057088, 1057014).
inConf((1057088, 1057014), 1057088).
inConf((1057088, 1057014), 1057014).
conf(1361104, 1377255).
inConf((1361104, 1377255), 1361104).
inConf((1361104, 1377255), 1377255).
conf(936420, 936375).
inConf((936420, 936375), 936420).
inConf((936420, 936375), 936375).
conf(615572, 936375).
inConf((615572, 936375), 615572).
inConf((615572, 936375), 936375).
conf(897330, 897198).
inConf((897330, 897198), 897330).
inConf((897330, 897198), 897198).
conf(1057353, 1057014).
inConf((1057353, 1057014), 1057353).
inConf((1057353, 1057014), 1057014).
conf(936685, 936375).
inConf((936685, 936375), 936685).
inConf((936685, 936375), 936375).
conf(1512979, 286447).
inConf((1512979, 286447), 1512979).
inConf((1512979, 286447), 286447).
conf(2051200, 1057014).
inConf((2051200, 1057014), 2051200).
inConf((2051200, 1057014), 1057014).
conf(897595, 897198).
inConf((897595, 897198), 897595).
inConf((897595, 897198), 897198).
conf(1057438, 1057014).
inConf((1057438, 1057014), 1057438).
inConf((1057438, 1057014), 1057014).
conf(1845762, 288455).
inConf((1845762, 288455), 1845762).
inConf((1845762, 288455), 288455).
conf(1057209, 1057014).
inConf((1057209, 1057014), 1057209).
inConf((1057209, 1057014), 1057014).
conf(1432037, 286629).
inConf((1432037, 286629), 1432037).
inConf((1432037, 286629), 286629).
conf(936541, 936375).
inConf((936541, 936375), 936541).
inConf((936541, 936375), 936375).
conf(897451, 897198).
inConf((897451, 897198), 897451).
inConf((897451, 897198), 897198).
conf(1057474, 1057014).
inConf((1057474, 1057014), 1057474).
inConf((1057474, 1057014), 1057014).
conf(2047529, 1057014).
inConf((2047529, 1057014), 2047529).
inConf((2047529, 1057014), 1057014).
conf(1486585, 858749).
inConf((1486585, 858749), 1486585).
inConf((1486585, 858749), 858749).
conf(46324, 1788885).
inConf((46324, 1788885), 46324).
inConf((46324, 1788885), 1788885).
conf(936806, 936375).
inConf((936806, 936375), 936806).
inConf((936806, 936375), 936375).
conf(1057065, 1057014).
inConf((1057065, 1057014), 1057065).
inConf((1057065, 1057014), 1057014).
conf(936577, 936375).
inConf((936577, 936375), 936577).
inConf((936577, 936375), 936375).
conf(1374317, 936375).
inConf((1374317, 936375), 1374317).
inConf((1374317, 936375), 936375).
conf(897716, 897198).
inConf((897716, 897198), 897716).
inConf((897716, 897198), 897198).
conf(1986944, 132151).
inConf((1986944, 132151), 1986944).
inConf((1986944, 132151), 132151).
conf(1057014, 1057559).
inConf((1057014, 1057559), 1057014).
inConf((1057014, 1057559), 1057559).
conf(897307, 897198).
inConf((897307, 897198), 897307).
inConf((897307, 897198), 897198).
conf(1057330, 1057014).
inConf((1057330, 1057014), 1057330).
inConf((1057330, 1057014), 1057014).
conf(936662, 936375).
inConf((936662, 936375), 936662).
inConf((936662, 936375), 936375).
conf(1975594, 858749).
inConf((1975594, 858749), 1975594).
inConf((1975594, 858749), 858749).
conf(936433, 936375).
inConf((936433, 936375), 936433).
inConf((936433, 936375), 936375).
conf(897572, 897198).
inConf((897572, 897198), 897572).
inConf((897572, 897198), 897198).
conf(1760540, 46829).
inConf((1760540, 46829), 1760540).
inConf((1760540, 46829), 46829).
conf(1057186, 1057014).
inConf((1057186, 1057014), 1057186).
inConf((1057186, 1057014), 1057014).
conf(936698, 936375).
inConf((936698, 936375), 936698).
inConf((936698, 936375), 936375).
conf(48761, 1815883).
inConf((48761, 1815883), 48761).
inConf((48761, 1815883), 1815883).
conf(2043988, 936375).
inConf((2043988, 936375), 2043988).
inConf((2043988, 936375), 936375).
conf(897428, 897198).
inConf((897428, 897198), 897428).
inConf((897428, 897198), 897198).
conf(1057451, 1057014).
inConf((1057451, 1057014), 1057451).
inConf((1057451, 1057014), 1057014).
conf(1057042, 1057014).
inConf((1057042, 1057014), 1057042).
inConf((1057042, 1057014), 1057014).
conf(936554, 936375).
inConf((936554, 936375), 936554).
inConf((936554, 936375), 936375).
conf(897693, 897198).
inConf((897693, 897198), 897693).
inConf((897693, 897198), 897198).
conf(897464, 897198).
inConf((897464, 897198), 897464).
inConf((897464, 897198), 897198).
conf(1057307, 1057014).
inConf((1057307, 1057014), 1057307).
inConf((1057307, 1057014), 1057014).
conf(936819, 936375).
inConf((936819, 936375), 936819).
inConf((936819, 936375), 936375).
conf(2007730, 778970).
inConf((2007730, 778970), 2007730).
inConf((2007730, 778970), 778970).
conf(936410, 936375).
inConf((936410, 936375), 936410).
inConf((936410, 936375), 936375).
conf(897549, 897198).
inConf((897549, 897198), 897549).
inConf((897549, 897198), 897198).
conf(1057572, 1057014).
inConf((1057572, 1057014), 1057572).
inConf((1057572, 1057014), 1057014).
conf(897320, 897198).
inConf((897320, 897198), 897320).
inConf((897320, 897198), 897198).
conf(1057163, 1057014).
inConf((1057163, 1057014), 1057163).
inConf((1057163, 1057014), 1057014).
conf(936675, 936375).
inConf((936675, 936375), 936675).
inConf((936675, 936375), 936375).
conf(897585, 897198).
inConf((897585, 897198), 897585).
inConf((897585, 897198), 897198).
conf(1057428, 1057014).
inConf((1057428, 1057014), 1057428).
inConf((1057428, 1057014), 1057014).
conf(1361104, 1377366).
inConf((1361104, 1377366), 1361104).
inConf((1361104, 1377366), 1377366).
conf(1057019, 1057014).
inConf((1057019, 1057014), 1057019).
inConf((1057019, 1057014), 1057014).
conf(936531, 936375).
inConf((936531, 936375), 936531).
inConf((936531, 936375), 936375).
conf(1734120, 9695).
inConf((1734120, 9695), 1734120).
inConf((1734120, 9695), 9695).
conf(897670, 897198).
inConf((897670, 897198), 897670).
inConf((897670, 897198), 897198).
conf(897441, 897198).
inConf((897441, 897198), 897441).
inConf((897441, 897198), 897198).
conf(1788875, 46324).
inConf((1788875, 46324), 1788875).
inConf((1788875, 46324), 46324).
conf(1057284, 1057014).
inConf((1057284, 1057014), 1057284).
inConf((1057284, 1057014), 1057014).
conf(936796, 936375).
inConf((936796, 936375), 936796).
inConf((936796, 936375), 936375).
conf(1057014, 1057055).
inConf((1057014, 1057055), 1057014).
inConf((1057014, 1057055), 1057055).
conf(2050502, 936375).
inConf((2050502, 936375), 2050502).
inConf((2050502, 936375), 936375).
conf(897706, 897198).
inConf((897706, 897198), 897706).
inConf((897706, 897198), 897198).
conf(936387, 936375).
inConf((936387, 936375), 936387).
inConf((936387, 936375), 936375).
conf(797769, 2).
inConf((797769, 2), 797769).
inConf((797769, 2), 2).
conf(1057549, 1057014).
inConf((1057549, 1057014), 1057549).
inConf((1057549, 1057014), 1057014).
conf(897297, 897198).
inConf((897297, 897198), 897297).
inConf((897297, 897198), 897198).
conf(1057320, 1057014).
inConf((1057320, 1057014), 1057320).
inConf((1057320, 1057014), 1057014).
conf(863100, 897198).
inConf((863100, 897198), 863100).
inConf((863100, 897198), 897198).
conf(936652, 936375).
inConf((936652, 936375), 936652).
inConf((936652, 936375), 936375).
conf(1361104, 1377258).
inConf((1361104, 1377258), 1361104).
inConf((1361104, 1377258), 1377258).
conf(936423, 936375).
inConf((936423, 936375), 936423).
inConf((936423, 936375), 936375).
conf(897562, 897198).
inConf((897562, 897198), 897562).
inConf((897562, 897198), 897198).
conf(1372980, 897198).
inConf((1372980, 897198), 1372980).
inConf((1372980, 897198), 897198).
conf(1057405, 1057014).
inConf((1057405, 1057014), 1057405).
inConf((1057405, 1057014), 1057014).
conf(1363408, 1966251).
inConf((1363408, 1966251), 1363408).
inConf((1363408, 1966251), 1966251).
conf(1057176, 1057014).
inConf((1057176, 1057014), 1057176).
inConf((1057176, 1057014), 1057014).
conf(1872427, 1370227).
inConf((1872427, 1370227), 1872427).
inConf((1872427, 1370227), 1370227).
conf(936508, 936375).
inConf((936508, 936375), 936508).
inConf((936508, 936375), 936375).
conf(2050120, 1057014).
inConf((2050120, 1057014), 2050120).
inConf((2050120, 1057014), 1057014).
conf(2053641, 897198).
inConf((2053641, 897198), 2053641).
inConf((2053641, 897198), 897198).
conf(897418, 897198).
inConf((897418, 897198), 897418).
inConf((897418, 897198), 897198).
conf(1057441, 1057014).
inConf((1057441, 1057014), 1057441).
inConf((1057441, 1057014), 1057014).
conf(8586, 129532).
inConf((8586, 129532), 8586).
inConf((8586, 129532), 129532).
conf(936773, 936375).
inConf((936773, 936375), 936773).
inConf((936773, 936375), 936375).
conf(1057032, 1057014).
inConf((1057032, 1057014), 1057032).
inConf((1057032, 1057014), 1057014).
conf(1431860, 286629).
inConf((1431860, 286629), 1431860).
inConf((1431860, 286629), 286629).
conf(936544, 936375).
inConf((936544, 936375), 936544).
inConf((936544, 936375), 936375).
conf(1759977, 46829).
inConf((1759977, 46829), 1759977).
inConf((1759977, 46829), 46829).
conf(897683, 897198).
inConf((897683, 897198), 897683).
inConf((897683, 897198), 897198).
conf(2044192, 897198).
inConf((2044192, 897198), 2044192).
inConf((2044192, 897198), 897198).
conf(897274, 897198).
inConf((897274, 897198), 897274).
inConf((897274, 897198), 897198).
conf(1057297, 1057014).
inConf((1057297, 1057014), 1057297).
inConf((1057297, 1057014), 1057014).
conf(43600, 1978873).
inConf((43600, 1978873), 43600).
inConf((43600, 1978873), 1978873).
conf(936809, 936375).
inConf((936809, 936375), 936809).
inConf((936809, 936375), 936375).
conf(46489, 1972699).
inConf((46489, 1972699), 46489).
inConf((46489, 1972699), 1972699).
conf(936400, 936375).
inConf((936400, 936375), 936400).
inConf((936400, 936375), 936375).
conf(1361104, 1378138).
inConf((1361104, 1378138), 1361104).
inConf((1361104, 1378138), 1378138).
conf(897539, 897198).
inConf((897539, 897198), 897539).
inConf((897539, 897198), 897198).
conf(1057562, 1057014).
inConf((1057562, 1057014), 1057562).
inConf((1057562, 1057014), 1057014).
conf(1057153, 1057014).
inConf((1057153, 1057014), 1057153).
inConf((1057153, 1057014), 1057014).
conf(936665, 936375).
inConf((936665, 936375), 936665).
inConf((936665, 936375), 936375).
conf(43864, 1760800).
inConf((43864, 1760800), 43864).
inConf((43864, 1760800), 1760800).
conf(2007730, 492250).
inConf((2007730, 492250), 2007730).
inConf((2007730, 492250), 492250).
conf(774499, 129532).
inConf((774499, 129532), 774499).
inConf((774499, 129532), 129532).
conf(897395, 897198).
inConf((897395, 897198), 897395).
inConf((897395, 897198), 897198).
conf(1057418, 1057014).
inConf((1057418, 1057014), 1057418).
inConf((1057418, 1057014), 1057014).
conf(2051897, 897198).
inConf((2051897, 897198), 2051897).
inConf((2051897, 897198), 897198).
conf(936521, 936375).
inConf((936521, 936375), 936521).
inConf((936521, 936375), 936375).
conf(897660, 897198).
inConf((897660, 897198), 897660).
inConf((897660, 897198), 897198).
conf(1997747, 369678).
inConf((1997747, 369678), 1997747).
inConf((1997747, 369678), 369678).
conf(897198, 897431).
inConf((897198, 897431), 897198).
inConf((897198, 897431), 897431).
conf(1057274, 1057014).
inConf((1057274, 1057014), 1057274).
inConf((1057274, 1057014), 1057014).
conf(936786, 936375).
inConf((936786, 936375), 936786).
inConf((936786, 936375), 936375).
conf(1760893, 46829).
inConf((1760893, 46829), 1760893).
inConf((1760893, 46829), 46829).
conf(1512671, 286447).
inConf((1512671, 286447), 1512671).
inConf((1512671, 286447), 286447).
conf(2021961, 530577).
inConf((2021961, 530577), 2021961).
inConf((2021961, 530577), 530577).
conf(936377, 936375).
inConf((936377, 936375), 936377).
inConf((936377, 936375), 936375).
conf(491305, 760094).
inConf((491305, 760094), 491305).
inConf((491305, 760094), 760094).
conf(897516, 897198).
inConf((897516, 897198), 897516).
inConf((897516, 897198), 897198).
conf(1057539, 1057014).
inConf((1057539, 1057014), 1057539).
inConf((1057539, 1057014), 1057014).
conf(897198, 897287).
inConf((897198, 897287), 897198).
inConf((897198, 897287), 897287).
conf(1363408, 1539082).
inConf((1363408, 1539082), 1363408).
inConf((1363408, 1539082), 1539082).
conf(1057130, 1057014).
inConf((1057130, 1057014), 1057130).
inConf((1057130, 1057014), 1057014).
conf(936642, 936375).
inConf((936642, 936375), 936642).
inConf((936642, 936375), 936375).
conf(1980594, 46829).
inConf((1980594, 46829), 1980594).
inConf((1980594, 46829), 46829).
conf(130656, 370278).
inConf((130656, 370278), 130656).
inConf((130656, 370278), 370278).
conf(2007730, 1998346).
inConf((2007730, 1998346), 2007730).
inConf((2007730, 1998346), 1998346).
conf(897552, 897198).
inConf((897552, 897198), 897552).
inConf((897552, 897198), 897198).
conf(1057395, 1057014).
inConf((1057395, 1057014), 1057395).
inConf((1057395, 1057014), 1057014).
conf(1057166, 1057014).
inConf((1057166, 1057014), 1057166).
inConf((1057166, 1057014), 1057014).
conf(1788577, 46324).
inConf((1788577, 46324), 1788577).
inConf((1788577, 46324), 46324).
conf(936498, 936375).
inConf((936498, 936375), 936498).
inConf((936498, 936375), 936375).
conf(897408, 897198).
inConf((897408, 897198), 897408).
inConf((897408, 897198), 897198).
conf(1057251, 1057014).
inConf((1057251, 1057014), 1057251).
inConf((1057251, 1057014), 1057014).
conf(936763, 936375).
inConf((936763, 936375), 936763).
inConf((936763, 936375), 936375).
conf(1057014, 1057022).
inConf((1057014, 1057022), 1057014).
inConf((1057014, 1057022), 1057022).
conf(897673, 897198).
inConf((897673, 897198), 897673).
inConf((897673, 897198), 897198).
conf(1057516, 1057014).
inConf((1057516, 1057014), 1057516).
inConf((1057516, 1057014), 1057014).
conf(897264, 897198).
inConf((897264, 897198), 897264).
inConf((897264, 897198), 897198).
conf(1760461, 46829).
inConf((1760461, 46829), 1760461).
inConf((1760461, 46829), 46829).
conf(1057014, 1057287).
inConf((1057014, 1057287), 1057014).
inConf((1057014, 1057287), 1057287).
conf(936619, 936375).
inConf((936619, 936375), 936619).
inConf((936619, 936375), 936375).
conf(936390, 936375).
inConf((936390, 936375), 936390).
inConf((936390, 936375), 936375).
conf(897529, 897198).
inConf((897529, 897198), 897529).
inConf((897529, 897198), 897198).
conf(1057552, 1057014).
inConf((1057552, 1057014), 1057552).
inConf((1057552, 1057014), 1057014).
conf(1980244, 1057014).
inConf((1980244, 1057014), 1980244).
inConf((1980244, 1057014), 1057014).
conf(1057014, 1057143).
inConf((1057014, 1057143), 1057014).
inConf((1057014, 1057143), 1057143).
conf(936655, 936375).
inConf((936655, 936375), 936655).
inConf((936655, 936375), 936375).
conf(286629, 488719).
inConf((286629, 488719), 286629).
inConf((286629, 488719), 488719).
conf(38954, 454071).
inConf((38954, 454071), 38954).
inConf((38954, 454071), 454071).
conf(897385, 897198).
inConf((897385, 897198), 897385).
inConf((897385, 897198), 897198).
conf(1057408, 1057014).
inConf((1057408, 1057014), 1057408).
inConf((1057408, 1057014), 1057014).
conf(936740, 936375).
inConf((936740, 936375), 936740).
inConf((936740, 936375), 936375).
conf(936511, 936375).
inConf((936511, 936375), 936511).
inConf((936511, 936375), 936375).
conf(1759944, 46829).
inConf((1759944, 46829), 1759944).
inConf((1759944, 46829), 46829).
conf(897650, 897198).
inConf((897650, 897198), 897650).
inConf((897650, 897198), 897198).
conf(56018, 286252).
inConf((56018, 286252), 56018).
inConf((56018, 286252), 286252).
conf(858749, 1487013).
inConf((858749, 1487013), 858749).
inConf((858749, 1487013), 1487013).
conf(1370853, 897198).
inConf((1370853, 897198), 1370853).
inConf((1370853, 897198), 897198).
conf(897241, 897198).
inConf((897241, 897198), 897241).
inConf((897241, 897198), 897198).
conf(1057264, 1057014).
inConf((1057264, 1057014), 1057264).
inConf((1057264, 1057014), 1057014).
conf(936776, 936375).
inConf((936776, 936375), 936776).
inConf((936776, 936375), 936375).
conf(897506, 897198).
inConf((897506, 897198), 897506).
inConf((897506, 897198), 897198).
conf(1057529, 1057014).
inConf((1057529, 1057014), 1057529).
inConf((1057529, 1057014), 1057014).
conf(897277, 897198).
inConf((897277, 897198), 897277).
inConf((897277, 897198), 897198).
conf(1057120, 1057014).
inConf((1057120, 1057014), 1057120).
inConf((1057120, 1057014), 1057014).
conf(936632, 936375).
inConf((936632, 936375), 936632).
inConf((936632, 936375), 936375).
conf(1845444, 288455).
inConf((1845444, 288455), 1845444).
inConf((1845444, 288455), 288455).
conf(783097, 129532).
inConf((783097, 129532), 783097).
inConf((783097, 129532), 129532).
conf(897362, 897198).
inConf((897362, 897198), 897362).
inConf((897362, 897198), 897198).
conf(1057385, 1057014).
inConf((1057385, 1057014), 1057385).
inConf((1057385, 1057014), 1057014).
conf(1512212, 43295).
inConf((1512212, 43295), 1512212).
inConf((1512212, 43295), 43295).
conf(761872, 97647).
inConf((761872, 97647), 761872).
inConf((761872, 97647), 97647).
conf(1361104, 1377323).
inConf((1361104, 1377323), 1361104).
inConf((1361104, 1377323), 1377323).
conf(936488, 936375).
inConf((936488, 936375), 936488).
inConf((936488, 936375), 936375).
conf(897627, 897198).
inConf((897627, 897198), 897627).
inConf((897627, 897198), 897198).
conf(897398, 897198).
inConf((897398, 897198), 897398).
inConf((897398, 897198), 897198).
conf(1057241, 1057014).
inConf((1057241, 1057014), 1057241).
inConf((1057241, 1057014), 1057014).
conf(860325, 1539351).
inConf((860325, 1539351), 860325).
inConf((860325, 1539351), 1539351).
conf(2054889, 936375).
inConf((2054889, 936375), 2054889).
inConf((2054889, 936375), 936375).
conf(2053483, 1057014).
inConf((2053483, 1057014), 2053483).
inConf((2053483, 1057014), 1057014).
conf(1371504, 897198).
inConf((1371504, 897198), 1371504).
inConf((1371504, 897198), 897198).
conf(2052803, 897198).
inConf((2052803, 897198), 2052803).
inConf((2052803, 897198), 897198).
conf(936753, 936375).
inConf((936753, 936375), 936753).
inConf((936753, 936375), 936375).
conf(897198, 897663).
inConf((897198, 897663), 897198).
inConf((897198, 897663), 897663).
conf(1057506, 1057014).
inConf((1057506, 1057014), 1057506).
inConf((1057506, 1057014), 1057014).
conf(286629, 1432334).
inConf((286629, 1432334), 286629).
inConf((286629, 1432334), 1432334).
conf(897254, 897198).
inConf((897254, 897198), 897254).
inConf((897254, 897198), 897198).
conf(1363408, 1539952).
inConf((1363408, 1539952), 1363408).
inConf((1363408, 1539952), 1539952).
conf(1057097, 1057014).
inConf((1057097, 1057014), 1057097).
inConf((1057097, 1057014), 1057014).
conf(447592, 2018482).
inConf((447592, 2018482), 447592).
inConf((447592, 2018482), 2018482).
conf(936609, 936375).
inConf((936609, 936375), 936609).
inConf((936609, 936375), 936375).
conf(1370227, 1873022).
inConf((1370227, 1873022), 1370227).
inConf((1370227, 1873022), 1873022).
conf(897198, 897519).
inConf((897198, 897519), 897198).
inConf((897198, 897519), 897519).
conf(1057362, 1057014).
inConf((1057362, 1057014), 1057362).
inConf((1057362, 1057014), 1057014).
conf(1057133, 1057014).
inConf((1057133, 1057014), 1057133).
inConf((1057133, 1057014), 1057014).
conf(936465, 936375).
inConf((936465, 936375), 936465).
inConf((936465, 936375), 936375).
conf(897198, 897375).
inConf((897198, 897375), 897198).
inConf((897198, 897375), 897375).
conf(1057398, 1057014).
inConf((1057398, 1057014), 1057398).
inConf((1057398, 1057014), 1057014).
conf(936730, 936375).
inConf((936730, 936375), 936730).
inConf((936730, 936375), 936375).
conf(1432720, 286629).
inConf((1432720, 286629), 1432720).
inConf((1432720, 286629), 286629).
conf(897640, 897198).
inConf((897640, 897198), 897640).
inConf((897640, 897198), 897198).
conf(1363408, 1539435).
inConf((1363408, 1539435), 1363408).
inConf((1363408, 1539435), 1539435).
conf(858749, 1486774).
inConf((858749, 1486774), 858749).
inConf((858749, 1486774), 1486774).
conf(1057483, 1057014).
inConf((1057483, 1057014), 1057483).
inConf((1057483, 1057014), 1057014).
conf(897198, 897231).
inConf((897198, 897231), 897198).
inConf((897198, 897231), 897231).
conf(1057014, 1057254).
inConf((1057014, 1057254), 1057014).
inConf((1057014, 1057254), 1057254).
conf(288665, 1788791).
inConf((288665, 1788791), 288665).
inConf((288665, 1788791), 1788791).
conf(936586, 936375).
inConf((936586, 936375), 936586).
inConf((936586, 936375), 936375).
conf(897496, 897198).
inConf((897496, 897198), 897496).
inConf((897496, 897198), 897198).
conf(1057014, 1057519).
inConf((1057014, 1057519), 1057014).
inConf((1057014, 1057519), 1057519).
conf(43864, 1760492).
inConf((43864, 1760492), 43864).
inConf((43864, 1760492), 1760492).
conf(125888, 805601).
inConf((125888, 805601), 125888).
inConf((125888, 805601), 805601).
conf(1057110, 1057014).
inConf((1057110, 1057014), 1057110).
inConf((1057110, 1057014), 1057014).
conf(936622, 936375).
inConf((936622, 936375), 936622).
inConf((936622, 936375), 936375).
conf(897352, 897198).
inConf((897352, 897198), 897352).
inConf((897352, 897198), 897198).
conf(1057014, 1057375).
inConf((1057014, 1057375), 1057014).
inConf((1057014, 1057375), 1057375).
conf(1432203, 286629).
inConf((1432203, 286629), 1432203).
inConf((1432203, 286629), 286629).
conf(936707, 936375).
inConf((936707, 936375), 936707).
inConf((936707, 936375), 936375).
conf(936478, 936375).
inConf((936478, 936375), 936478).
inConf((936478, 936375), 936375).
conf(897617, 897198).
inConf((897617, 897198), 897617).
inConf((897617, 897198), 897198).
conf(1760585, 46829).
inConf((1760585, 46829), 1760585).
inConf((1760585, 46829), 46829).
conf(897208, 897198).
inConf((897208, 897198), 897208).
inConf((897208, 897198), 897198).
conf(1057014, 1057231).
inConf((1057014, 1057231), 1057014).
inConf((1057014, 1057231), 1057231).
conf(936743, 936375).
inConf((936743, 936375), 936743).
inConf((936743, 936375), 936375).
conf(897473, 897198).
inConf((897473, 897198), 897473).
inConf((897473, 897198), 897198).
conf(1057496, 1057014).
inConf((1057496, 1057014), 1057496).
inConf((1057496, 1057014), 1057014).
conf(897244, 897198).
inConf((897244, 897198), 897244).
inConf((897244, 897198), 897198).
conf(72828, 43295).
inConf((72828, 43295), 72828).
inConf((72828, 43295), 43295).
conf(1984486, 132151).
inConf((1984486, 132151), 1984486).
inConf((1984486, 132151), 132151).
conf(1057014, 1057087).
inConf((1057014, 1057087), 1057014).
inConf((1057014, 1057087), 1057087).
conf(936599, 936375).
inConf((936599, 936375), 936599).
inConf((936599, 936375), 936375).
conf(897509, 897198).
inConf((897509, 897198), 897509).
inConf((897509, 897198), 897198).
conf(1057352, 1057014).
inConf((1057352, 1057014), 1057352).
inConf((1057352, 1057014), 1057014).
conf(43864, 1760999).
inConf((43864, 1760999), 43864).
inConf((43864, 1760999), 1760999).
conf(936455, 936375).
inConf((936455, 936375), 936455).
inConf((936455, 936375), 936375).
conf(897594, 897198).
inConf((897594, 897198), 897594).
inConf((897594, 897198), 897198).
conf(1372560, 1057014).
inConf((1372560, 1057014), 1372560).
inConf((1372560, 1057014), 1057014).
conf(897365, 897198).
inConf((897365, 897198), 897365).
inConf((897365, 897198), 897198).
conf(2043874, 897198).
inConf((2043874, 897198), 2043874).
inConf((2043874, 897198), 897198).
conf(1057208, 1057014).
inConf((1057208, 1057014), 1057208).
inConf((1057208, 1057014), 1057014).
conf(936720, 936375).
inConf((936720, 936375), 936720).
inConf((936720, 936375), 936375).
conf(897630, 897198).
inConf((897630, 897198), 897630).
inConf((897630, 897198), 897198).
conf(2001064, 369678).
inConf((2001064, 369678), 2001064).
inConf((2001064, 369678), 369678).
conf(1057473, 1057014).
inConf((1057473, 1057014), 1057473).
inConf((1057473, 1057014), 1057014).
conf(819650, 2).
inConf((819650, 2), 819650).
inConf((819650, 2), 2).
conf(842512, 589604).
inConf((842512, 589604), 842512).
inConf((842512, 589604), 589604).
conf(897221, 897198).
inConf((897221, 897198), 897221).
inConf((897221, 897198), 897198).
conf(1057064, 1057014).
inConf((1057064, 1057014), 1057064).
inConf((1057064, 1057014), 1057014).
conf(936576, 936375).
inConf((936576, 936375), 936576).
inConf((936576, 936375), 936375).
conf(897715, 897198).
inConf((897715, 897198), 897715).
inConf((897715, 897198), 897198).
conf(897486, 897198).
inConf((897486, 897198), 897486).
inConf((897486, 897198), 897198).
conf(286252, 1431447).
inConf((286252, 1431447), 286252).
inConf((286252, 1431447), 1431447).
conf(1844750, 288455).
inConf((1844750, 288455), 1844750).
inConf((1844750, 288455), 288455).
conf(46489, 1539421).
inConf((46489, 1539421), 46489).
inConf((46489, 1539421), 1539421).
conf(1057329, 1057014).
inConf((1057329, 1057014), 1057329).
inConf((1057329, 1057014), 1057014).
conf(936841, 936375).
inConf((936841, 936375), 936841).
inConf((936841, 936375), 936375).
conf(1845653, 288455).
inConf((1845653, 288455), 1845653).
inConf((1845653, 288455), 288455).
conf(1057100, 1057014).
inConf((1057100, 1057014), 1057100).
inConf((1057100, 1057014), 1057014).
conf(46489, 1540095).
inConf((46489, 1540095), 46489).
inConf((46489, 1540095), 1540095).
conf(936432, 936375).
inConf((936432, 936375), 936432).
inConf((936432, 936375), 936375).
conf(1512726, 286447).
inConf((1512726, 286447), 1512726).
inConf((1512726, 286447), 286447).
conf(1487114, 858749).
inConf((1487114, 858749), 1487114).
inConf((1487114, 858749), 858749).
conf(897342, 897198).
inConf((897342, 897198), 897342).
inConf((897342, 897198), 897198).
conf(1057365, 1057014).
inConf((1057365, 1057014), 1057365).
inConf((1057365, 1057014), 1057014).
conf(43600, 1955901).
inConf((43600, 1955901), 43600).
inConf((43600, 1955901), 1955901).
conf(936697, 936375).
inConf((936697, 936375), 936697).
inConf((936697, 936375), 936375).
conf(1371319, 936375).
inConf((1371319, 936375), 1371319).
inConf((1371319, 936375), 936375).
conf(43600, 1872588).
inConf((43600, 1872588), 43600).
inConf((43600, 1872588), 1872588).
conf(936468, 936375).
inConf((936468, 936375), 936468).
inConf((936468, 936375), 936375).
conf(897198, 897607).
inConf((897198, 897607), 897198).
inConf((897198, 897607), 897607).
conf(447592, 876756).
inConf((447592, 876756), 447592).
inConf((447592, 876756), 876756).
conf(1361104, 1945833).
inConf((1361104, 1945833), 1361104).
inConf((1361104, 1945833), 1945833).
conf(1057450, 1057014).
inConf((1057450, 1057014), 1057450).
inConf((1057450, 1057014), 1057014).
conf(1057221, 1057014).
inConf((1057221, 1057014), 1057221).
inConf((1057221, 1057014), 1057014).
conf(1761069, 46829).
inConf((1761069, 46829), 1761069).
inConf((1761069, 46829), 46829).
conf(936553, 936375).
inConf((936553, 936375), 936553).
inConf((936553, 936375), 936375).
conf(1487235, 858749).
inConf((1487235, 858749), 1487235).
inConf((1487235, 858749), 858749).
conf(897198, 897463).
inConf((897198, 897463), 897198).
inConf((897198, 897463), 897463).
conf(1057486, 1057014).
inConf((1057486, 1057014), 1057486).
inConf((1057486, 1057014), 1057014).
conf(46489, 1539398).
inConf((46489, 1539398), 46489).
inConf((46489, 1539398), 1539398).
conf(936818, 936375).
inConf((936818, 936375), 936818).
inConf((936818, 936375), 936375).
conf(1057077, 1057014).
inConf((1057077, 1057014), 1057077).
inConf((1057077, 1057014), 1057014).
conf(936589, 936375).
inConf((936589, 936375), 936589).
inConf((936589, 936375), 936375).
conf(286629, 1978478).
inConf((286629, 1978478), 286629).
inConf((286629, 1978478), 1978478).
conf(897198, 897319).
inConf((897198, 897319), 897198).
inConf((897198, 897319), 897319).
conf(1057342, 1057014).
inConf((1057342, 1057014), 1057342).
inConf((1057342, 1057014), 1057014).
conf(345, 1936417).
inConf((345, 1936417), 345).
inConf((345, 1936417), 1936417).
conf(835736, 589604).
inConf((835736, 589604), 835736).
inConf((835736, 589604), 589604).
conf(936445, 936375).
inConf((936445, 936375), 936445).
inConf((936445, 936375), 936375).
conf(2052946, 1057014).
inConf((2052946, 1057014), 2052946).
inConf((2052946, 1057014), 1057014).
conf(897584, 897198).
inConf((897584, 897198), 897584).
inConf((897584, 897198), 897198).
conf(43864, 1760580).
inConf((43864, 1760580), 43864).
inConf((43864, 1760580), 1760580).
conf(897198, 36710).
inConf((897198, 36710), 897198).
inConf((897198, 36710), 36710).
conf(1057198, 1057014).
inConf((1057198, 1057014), 1057198).
inConf((1057198, 1057014), 1057014).
conf(936710, 936375).
inConf((936710, 936375), 936710).
inConf((936710, 936375), 936375).
conf(515554, 43295).
inConf((515554, 43295), 515554).
inConf((515554, 43295), 43295).
conf(2007730, 897244).
inConf((2007730, 897244), 2007730).
inConf((2007730, 897244), 897244).
conf(897440, 897198).
inConf((897440, 897198), 897440).
inConf((897440, 897198), 897198).
conf(815340, 129532).
inConf((815340, 129532), 815340).
inConf((815340, 129532), 129532).
conf(132202, 1991243).
inConf((132202, 1991243), 132202).
inConf((132202, 1991243), 1991243).
conf(1057014, 1057463).
inConf((1057014, 1057463), 1057014).
inConf((1057014, 1057463), 1057463).
conf(897211, 897198).
inConf((897211, 897198), 897211).
inConf((897211, 897198), 897198).
conf(1057014, 1057054).
inConf((1057014, 1057054), 1057014).
inConf((1057014, 1057054), 1057054).
conf(936566, 936375).
inConf((936566, 936375), 936566).
inConf((936566, 936375), 936375).
conf(1845149, 288455).
inConf((1845149, 288455), 1845149).
inConf((1845149, 288455), 288455).
conf(897705, 897198).
inConf((897705, 897198), 897705).
inConf((897705, 897198), 897198).
conf(897476, 897198).
inConf((897476, 897198), 897476).
inConf((897476, 897198), 897198).
conf(1991808, 132151).
inConf((1991808, 132151), 1991808).
inConf((1991808, 132151), 132151).
conf(46324, 1788910).
inConf((46324, 1788910), 46324).
inConf((46324, 1788910), 1788910).
conf(1057014, 1057319).
inConf((1057014, 1057319), 1057014).
inConf((1057014, 1057319), 1057319).
conf(936831, 936375).
inConf((936831, 936375), 936831).
inConf((936831, 936375), 936375).
conf(369699, 848453).
inConf((369699, 848453), 369699).
inConf((369699, 848453), 848453).
conf(766571, 131412).
inConf((766571, 131412), 766571).
inConf((766571, 131412), 131412).
conf(1944553, 43295).
inConf((1944553, 43295), 1944553).
inConf((1944553, 43295), 43295).
conf(2, 787596).
inConf((2, 787596), 2).
inConf((2, 787596), 787596).
conf(936422, 936375).
inConf((936422, 936375), 936422).
inConf((936422, 936375), 936375).
conf(46489, 1539676).
inConf((46489, 1539676), 46489).
inConf((46489, 1539676), 1539676).
conf(897561, 897198).
inConf((897561, 897198), 897561).
inConf((897561, 897198), 897198).
conf(897332, 897198).
inConf((897332, 897198), 897332).
inConf((897332, 897198), 897198).
conf(43864, 1760328).
inConf((43864, 1760328), 43864).
inConf((43864, 1760328), 1760328).
conf(1361104, 1377522).
inConf((1361104, 1377522), 1361104).
inConf((1361104, 1377522), 1377522).
conf(46324, 1788766).
inConf((46324, 1788766), 46324).
inConf((46324, 1788766), 1788766).
conf(1057014, 1057175).
inConf((1057014, 1057175), 1057014).
inConf((1057014, 1057175), 1057175).
conf(936687, 936375).
inConf((936687, 936375), 936687).
inConf((936687, 936375), 936375).
conf(50403, 589604).
inConf((50403, 589604), 50403).
inConf((50403, 589604), 589604).
conf(897597, 897198).
inConf((897597, 897198), 897597).
inConf((897597, 897198), 897198).
conf(1057440, 1057014).
inConf((1057440, 1057014), 1057440).
inConf((1057440, 1057014), 1057014).
conf(1057211, 1057014).
inConf((1057211, 1057014), 1057211).
inConf((1057211, 1057014), 1057014).
conf(43864, 1760184).
inConf((43864, 1760184), 43864).
inConf((43864, 1760184), 1760184).
conf(936543, 936375).
inConf((936543, 936375), 936543).
inConf((936543, 936375), 936375).
conf(897453, 897198).
inConf((897453, 897198), 897453).
inConf((897453, 897198), 897198).
conf(2030222, 433119).
inConf((2030222, 433119), 2030222).
inConf((2030222, 433119), 433119).
conf(1057296, 1057014).
inConf((1057296, 1057014), 1057296).
inConf((1057296, 1057014), 1057014).
conf(936808, 936375).
inConf((936808, 936375), 936808).
inConf((936808, 936375), 936375).
conf(1057067, 1057014).
inConf((1057067, 1057014), 1057067).
inConf((1057067, 1057014), 1057014).
conf(286629, 1431895).
inConf((286629, 1431895), 286629).
inConf((286629, 1431895), 1431895).
conf(897718, 897198).
inConf((897718, 897198), 897718).
inConf((897718, 897198), 897198).
conf(936399, 936375).
inConf((936399, 936375), 936399).
inConf((936399, 936375), 936375).
conf(43600, 1872061).
inConf((43600, 1872061), 43600).
inConf((43600, 1872061), 1872061).
conf(1057561, 1057014).
inConf((1057561, 1057014), 1057561).
inConf((1057561, 1057014), 1057014).
conf(324074, 860325).
inConf((324074, 860325), 324074).
inConf((324074, 860325), 860325).
conf(897309, 897198).
inConf((897309, 897198), 897309).
inConf((897309, 897198), 897198).
conf(1057332, 1057014).
inConf((1057332, 1057014), 1057332).
inConf((1057332, 1057014), 1057014).
conf(1760277, 46829).
inConf((1760277, 46829), 1760277).
inConf((1760277, 46829), 46829).
conf(1486672, 858749).
inConf((1486672, 858749), 1486672).
inConf((1486672, 858749), 858749).
conf(936664, 936375).
inConf((936664, 936375), 936664).
inConf((936664, 936375), 936375).
conf(936435, 936375).
inConf((936435, 936375), 936435).
inConf((936435, 936375), 936375).
conf(897574, 897198).
inConf((897574, 897198), 897574).
inConf((897574, 897198), 897198).
conf(1057188, 1057014).
inConf((1057188, 1057014), 1057188).
inConf((1057188, 1057014), 1057014).
conf(1844585, 1368695).
inConf((1844585, 1368695), 1844585).
inConf((1844585, 1368695), 1368695).
conf(936700, 936375).
inConf((936700, 936375), 936700).
inConf((936700, 936375), 936375).
conf(9756, 1844493).
inConf((9756, 1844493), 9756).
inConf((9756, 1844493), 1844493).
conf(43600, 1872182).
inConf((43600, 1872182), 43600).
inConf((43600, 1872182), 1872182).
conf(897430, 897198).
inConf((897430, 897198), 897430).
inConf((897430, 897198), 897198).
conf(1057453, 1057014).
inConf((1057453, 1057014), 1057453).
inConf((1057453, 1057014), 1057014).
conf(936785, 936375).
inConf((936785, 936375), 936785).
inConf((936785, 936375), 936375).
conf(1057044, 1057014).
inConf((1057044, 1057014), 1057044).
inConf((1057044, 1057014), 1057014).
conf(542057, 759802).
inConf((542057, 759802), 542057).
inConf((542057, 759802), 759802).
conf(1539154, 860325).
inConf((1539154, 860325), 1539154).
inConf((1539154, 860325), 860325).
conf(820025, 129532).
inConf((820025, 129532), 820025).
inConf((820025, 129532), 129532).
conf(1371987, 1057014).
inConf((1371987, 1057014), 1371987).
inConf((1371987, 1057014), 1057014).
conf(936556, 936375).
inConf((936556, 936375), 936556).
inConf((936556, 936375), 936375).
conf(897198, 897695).
inConf((897198, 897695), 897198).
inConf((897198, 897695), 897695).
conf(1374970, 936375).
inConf((1374970, 936375), 1374970).
inConf((1374970, 936375), 936375).
conf(2047867, 936375).
inConf((2047867, 936375), 2047867).
inConf((2047867, 936375), 936375).
conf(897198, 897286).
inConf((897198, 897286), 897198).
inConf((897198, 897286), 897286).
conf(1057309, 1057014).
inConf((1057309, 1057014), 1057309).
inConf((1057309, 1057014), 1057014).
conf(936821, 936375).
inConf((936821, 936375), 936821).
inConf((936821, 936375), 936375).
conf(936412, 936375).
inConf((936412, 936375), 936412).
inConf((936412, 936375), 936375).
conf(897198, 897551).
inConf((897198, 897551), 897198).
inConf((897198, 897551), 897551).
conf(1057574, 1057014).
inConf((1057574, 1057014), 1057574).
inConf((1057574, 1057014), 1057014).
conf(897322, 897198).
inConf((897322, 897198), 897322).
inConf((897322, 897198), 897198).
conf(1984721, 2007730).
inConf((1984721, 2007730), 1984721).
inConf((1984721, 2007730), 2007730).
conf(1057165, 1057014).
inConf((1057165, 1057014), 1057165).
inConf((1057165, 1057014), 1057014).
conf(936677, 936375).
inConf((936677, 936375), 936677).
inConf((936677, 936375), 936375).
conf(129532, 782239).
inConf((129532, 782239), 129532).
inConf((129532, 782239), 782239).
conf(2007730, 1105269).
inConf((2007730, 1105269), 2007730).
inConf((2007730, 1105269), 1105269).
conf(897198, 897407).
inConf((897198, 897407), 897198).
inConf((897198, 897407), 897407).
conf(1057430, 1057014).
inConf((1057430, 1057014), 1057430).
inConf((1057430, 1057014), 1057014).
conf(127536, 345).
inConf((127536, 345), 127536).
inConf((127536, 345), 345).
conf(1057021, 1057014).
inConf((1057021, 1057014), 1057021).
inConf((1057021, 1057014), 1057014).
conf(1512827, 286447).
inConf((1512827, 286447), 1512827).
inConf((1512827, 286447), 286447).
conf(936533, 936375).
inConf((936533, 936375), 936533).
inConf((936533, 936375), 936375).
conf(897672, 897198).
inConf((897672, 897198), 897672).
inConf((897672, 897198), 897198).
conf(897443, 897198).
inConf((897443, 897198), 897443).
inConf((897443, 897198), 897198).
conf(1057014, 1375527).
inConf((1057014, 1375527), 1057014).
inConf((1057014, 1375527), 1375527).
conf(936798, 936375).
inConf((936798, 936375), 936798).
inConf((936798, 936375), 936375).
conf(1057014, 1057286).
inConf((1057014, 1057286), 1057014).
inConf((1057014, 1057286), 1057286).
conf(1057057, 1057014).
inConf((1057057, 1057014), 1057057).
inConf((1057057, 1057014), 1057014).
conf(897708, 897198).
inConf((897708, 897198), 897708).
inConf((897708, 897198), 897198).
conf(936389, 936375).
inConf((936389, 936375), 936389).
inConf((936389, 936375), 936375).
conf(1057014, 1057551).
inConf((1057014, 1057551), 1057014).
inConf((1057014, 1057551), 1057551).
conf(897299, 897198).
inConf((897299, 897198), 897299).
inConf((897299, 897198), 897198).
conf(1363408, 1539768).
inConf((1363408, 1539768), 1363408).
inConf((1363408, 1539768), 1539768).
conf(1057142, 1057014).
inConf((1057142, 1057014), 1057142).
inConf((1057142, 1057014), 1057014).
conf(936654, 936375).
inConf((936654, 936375), 936654).
inConf((936654, 936375), 936375).
conf(39544, 330315).
inConf((39544, 330315), 39544).
inConf((39544, 330315), 330315).
conf(46489, 1539908).
inConf((46489, 1539908), 46489).
inConf((46489, 1539908), 1539908).
conf(897564, 897198).
inConf((897564, 897198), 897564).
inConf((897564, 897198), 897198).
conf(759849, 416214).
inConf((759849, 416214), 759849).
inConf((759849, 416214), 416214).
conf(1057014, 1057407).
inConf((1057014, 1057407), 1057014).
inConf((1057014, 1057407), 1057407).
conf(1057178, 1057014).
inConf((1057178, 1057014), 1057178).
inConf((1057178, 1057014), 1057014).
conf(1376142, 1057014).
inConf((1376142, 1057014), 1376142).
inConf((1376142, 1057014), 1057014).
conf(936510, 936375).
inConf((936510, 936375), 936510).
inConf((936510, 936375), 936375).
conf(1376236, 936375).
inConf((1376236, 936375), 1376236).
inConf((1376236, 936375), 936375).
conf(897420, 897198).
inConf((897420, 897198), 897420).
inConf((897420, 897198), 897198).
conf(1057443, 1057014).
inConf((1057443, 1057014), 1057443).
inConf((1057443, 1057014), 1057014).
conf(1486554, 858749).
inConf((1486554, 858749), 1486554).
inConf((1486554, 858749), 858749).
conf(936775, 936375).
inConf((936775, 936375), 936775).
inConf((936775, 936375), 936375).
conf(1057034, 1057014).
inConf((1057034, 1057014), 1057034).
inConf((1057034, 1057014), 1057014).
conf(897685, 897198).
inConf((897685, 897198), 897685).
inConf((897685, 897198), 897198).
conf(1057528, 1057014).
inConf((1057528, 1057014), 1057528).
inConf((1057528, 1057014), 1057014).
conf(897276, 897198).
inConf((897276, 897198), 897276).
inConf((897276, 897198), 897198).
conf(1057299, 1057014).
inConf((1057299, 1057014), 1057299).
inConf((1057299, 1057014), 1057014).
conf(936631, 936375).
inConf((936631, 936375), 936631).
inConf((936631, 936375), 936375).
conf(1540083, 860325).
inConf((1540083, 860325), 1540083).
inConf((1540083, 860325), 860325).
conf(936402, 936375).
inConf((936402, 936375), 936402).
inConf((936402, 936375), 936375).
conf(897541, 897198).
inConf((897541, 897198), 897541).
inConf((897541, 897198), 897198).
conf(1057564, 1057014).
inConf((1057564, 1057014), 1057564).
inConf((1057564, 1057014), 1057014).
conf(1057155, 1057014).
inConf((1057155, 1057014), 1057155).
inConf((1057155, 1057014), 1057014).
conf(936667, 936375).
inConf((936667, 936375), 936667).
inConf((936667, 936375), 936375).
conf(863353, 1057014).
inConf((863353, 1057014), 863353).
inConf((863353, 1057014), 1057014).
conf(46324, 1788566).
inConf((46324, 1788566), 46324).
inConf((46324, 1788566), 1788566).
conf(123695, 38535).
inConf((123695, 38535), 123695).
inConf((123695, 38535), 38535).
conf(897397, 897198).
inConf((897397, 897198), 897397).
inConf((897397, 897198), 897198).
conf(1057420, 1057014).
inConf((1057420, 1057014), 1057420).
inConf((1057420, 1057014), 1057014).
conf(43600, 1872823).
inConf((43600, 1872823), 43600).
inConf((43600, 1872823), 1872823).
conf(936752, 936375).
inConf((936752, 936375), 936752).
inConf((936752, 936375), 936375).
conf(936523, 936375).
inConf((936523, 936375), 936523).
inConf((936523, 936375), 936375).
conf(2052444, 936375).
inConf((2052444, 936375), 2052444).
inConf((2052444, 936375), 936375).
conf(817777, 129532).
inConf((817777, 129532), 817777).
inConf((817777, 129532), 129532).
conf(897662, 897198).
inConf((897662, 897198), 897662).
inConf((897662, 897198), 897198).
conf(897253, 897198).
inConf((897253, 897198), 897253).
inConf((897253, 897198), 897198).
conf(1057276, 1057014).
inConf((1057276, 1057014), 1057276).
inConf((1057276, 1057014), 1057014).
conf(936788, 936375).
inConf((936788, 936375), 936788).
inConf((936788, 936375), 936375).
conf(936379, 936375).
inConf((936379, 936375), 936379).
inConf((936379, 936375), 936375).
conf(43600, 1872270).
inConf((43600, 1872270), 43600).
inConf((43600, 1872270), 1872270).
conf(1789361, 46324).
inConf((1789361, 46324), 1789361).
inConf((1789361, 46324), 46324).
conf(897518, 897198).
inConf((897518, 897198), 897518).
inConf((897518, 897198), 897198).
conf(1057541, 1057014).
inConf((1057541, 1057014), 1057541).
inConf((1057541, 1057014), 1057014).
conf(897289, 897198).
inConf((897289, 897198), 897289).
inConf((897289, 897198), 897198).
conf(1363408, 1539987).
inConf((1363408, 1539987), 1363408).
inConf((1363408, 1539987), 1539987).
conf(2049805, 897198).
inConf((2049805, 897198), 2049805).
inConf((2049805, 897198), 897198).
conf(111258, 762686).
inConf((111258, 762686), 111258).
inConf((111258, 762686), 762686).
conf(1057132, 1057014).
inConf((1057132, 1057014), 1057132).
inConf((1057132, 1057014), 1057014).
conf(936644, 936375).
inConf((936644, 936375), 936644).
inConf((936644, 936375), 936375).
conf(897554, 897198).
inConf((897554, 897198), 897554).
inConf((897554, 897198), 897198).
conf(1057397, 1057014).
inConf((1057397, 1057014), 1057397).
inConf((1057397, 1057014), 1057014).
conf(48761, 1815865).
inConf((48761, 1815865), 48761).
inConf((48761, 1815865), 1815865).
conf(513434, 286447).
inConf((513434, 286447), 513434).
inConf((513434, 286447), 286447).
conf(936500, 936375).
inConf((936500, 936375), 936500).
inConf((936500, 936375), 936375).
conf(897198, 897639).
inConf((897198, 897639), 897198).
inConf((897198, 897639), 897639).
conf(897410, 897198).
inConf((897410, 897198), 897410).
inConf((897410, 897198), 897198).
conf(1057253, 1057014).
inConf((1057253, 1057014), 1057253).
inConf((1057253, 1057014), 1057014).
conf(936765, 936375).
inConf((936765, 936375), 936765).
inConf((936765, 936375), 936375).
conf(2, 838269).
inConf((2, 838269), 2).
inConf((2, 838269), 838269).
conf(1057024, 1057014).
inConf((1057024, 1057014), 1057024).
inConf((1057024, 1057014), 1057014).
conf(897675, 897198).
inConf((897675, 897198), 897675).
inConf((897675, 897198), 897198).
conf(125888, 794669).
inConf((125888, 794669), 125888).
inConf((125888, 794669), 794669).
conf(1057014, 2050871).
inConf((1057014, 2050871), 1057014).
inConf((1057014, 2050871), 2050871).
conf(1057014, 1057518).
inConf((1057014, 1057518), 1057014).
inConf((1057014, 1057518), 1057518).
conf(897266, 897198).
inConf((897266, 897198), 897266).
inConf((897266, 897198), 897198).
conf(43864, 1760262).
inConf((43864, 1760262), 43864).
inConf((43864, 1760262), 1760262).
conf(1057109, 1057014).
inConf((1057109, 1057014), 1057109).
inConf((1057109, 1057014), 1057014).
conf(936621, 936375).
inConf((936621, 936375), 936621).
inConf((936621, 936375), 936375).
conf(1966845, 1368695).
inConf((1966845, 1368695), 1966845).
inConf((1966845, 1368695), 1368695).
conf(897531, 897198).
inConf((897531, 897198), 897531).
inConf((897531, 897198), 897198).
conf(2051130, 897198).
inConf((2051130, 897198), 2051130).
inConf((2051130, 897198), 897198).
conf(1057374, 1057014).
inConf((1057374, 1057014), 1057374).
inConf((1057374, 1057014), 1057014).
conf(1513180, 286447).
inConf((1513180, 286447), 1513180).
inConf((1513180, 286447), 286447).
conf(814040, 589604).
inConf((814040, 589604), 814040).
inConf((814040, 589604), 589604).
conf(1057145, 1057014).
inConf((1057145, 1057014), 1057145).
inConf((1057145, 1057014), 1057014).
conf(2051172, 1057014).
inConf((2051172, 1057014), 2051172).
inConf((2051172, 1057014), 1057014).
conf(936477, 936375).
inConf((936477, 936375), 936477).
inConf((936477, 936375), 936375).
conf(897387, 897198).
inConf((897387, 897198), 897387).
inConf((897387, 897198), 897198).
conf(1057410, 1057014).
inConf((1057410, 1057014), 1057410).
inConf((1057410, 1057014), 1057014).
conf(43864, 1760383).
inConf((43864, 1760383), 43864).
inConf((43864, 1760383), 1760383).
conf(936742, 936375).
inConf((936742, 936375), 936742).
inConf((936742, 936375), 936375).
conf(936513, 936375).
inConf((936513, 936375), 936513).
inConf((936513, 936375), 936375).
conf(897652, 897198).
inConf((897652, 897198), 897652).
inConf((897652, 897198), 897198).
conf(1057014, 1057495).
inConf((1057014, 1057495), 1057014).
inConf((1057014, 1057495), 1057495).
conf(897243, 897198).
inConf((897243, 897198), 897243).
inConf((897243, 897198), 897198).
conf(1057266, 1057014).
inConf((1057266, 1057014), 1057266).
inConf((1057266, 1057014), 1057014).
conf(936598, 936375).
inConf((936598, 936375), 936598).
inConf((936598, 936375), 936375).
conf(690066, 897198).
inConf((690066, 897198), 690066).
inConf((690066, 897198), 897198).
conf(2, 433839).
inConf((2, 433839), 2).
inConf((2, 433839), 433839).
conf(897508, 897198).
inConf((897508, 897198), 897508).
inConf((897508, 897198), 897198).
conf(1057531, 1057014).
inConf((1057531, 1057014), 1057531).
inConf((1057531, 1057014), 1057014).
conf(1057122, 1057014).
inConf((1057122, 1057014), 1057122).
inConf((1057122, 1057014), 1057014).
conf(936634, 936375).
inConf((936634, 936375), 936634).
inConf((936634, 936375), 936375).
conf(897364, 897198).
inConf((897364, 897198), 897364).
inConf((897364, 897198), 897198).
conf(1057387, 1057014).
inConf((1057387, 1057014), 1057387).
inConf((1057387, 1057014), 1057014).
conf(936490, 936375).
inConf((936490, 936375), 936490).
inConf((936490, 936375), 936375).
conf(1845302, 288455).
inConf((1845302, 288455), 1845302).
inConf((1845302, 288455), 288455).
conf(897629, 897198).
inConf((897629, 897198), 897629).
inConf((897629, 897198), 897198).
conf(1361104, 1377819).
inConf((1361104, 1377819), 1361104).
inConf((1361104, 1377819), 1377819).
conf(897220, 897198).
inConf((897220, 897198), 897220).
inConf((897220, 897198), 897198).
conf(1057243, 1057014).
inConf((1057243, 1057014), 1057243).
inConf((1057243, 1057014), 1057014).
conf(936755, 936375).
inConf((936755, 936375), 936755).
inConf((936755, 936375), 936375).
conf(1486354, 858749).
inConf((1486354, 858749), 1486354).
inConf((1486354, 858749), 858749).
conf(818898, 1057014).
inConf((818898, 1057014), 818898).
inConf((818898, 1057014), 1057014).
conf(897485, 897198).
inConf((897485, 897198), 897485).
inConf((897485, 897198), 897198).
conf(1057508, 1057014).
inConf((1057508, 1057014), 1057508).
inConf((1057508, 1057014), 1057014).
conf(1513314, 286447).
inConf((1513314, 286447), 1513314).
inConf((1513314, 286447), 286447).
conf(897256, 897198).
inConf((897256, 897198), 897256).
inConf((897256, 897198), 897198).
conf(1815976, 48761).
inConf((1815976, 48761), 1815976).
inConf((1815976, 48761), 48761).
conf(1486619, 858749).
inConf((1486619, 858749), 1486619).
inConf((1486619, 858749), 858749).
conf(1057099, 1057014).
inConf((1057099, 1057014), 1057099).
inConf((1057099, 1057014), 1057014).
conf(936611, 936375).
inConf((936611, 936375), 936611).
inConf((936611, 936375), 936375).
conf(897521, 897198).
inConf((897521, 897198), 897521).
inConf((897521, 897198), 897198).
conf(1057364, 1057014).
inConf((1057364, 1057014), 1057364).
inConf((1057364, 1057014), 1057014).
conf(936467, 936375).
inConf((936467, 936375), 936467).
inConf((936467, 936375), 936375).
conf(1845050, 288455).
inConf((1845050, 288455), 1845050).
inConf((1845050, 288455), 288455).
conf(897606, 897198).
inConf((897606, 897198), 897606).
inConf((897606, 897198), 897198).
conf(897377, 897198).
inConf((897377, 897198), 897377).
inConf((897377, 897198), 897198).
conf(1761248, 46829).
inConf((1761248, 46829), 1761248).
inConf((1761248, 46829), 46829).
conf(1057220, 1057014).
inConf((1057220, 1057014), 1057220).
inConf((1057220, 1057014), 1057014).
conf(936732, 936375).
inConf((936732, 936375), 936732).
inConf((936732, 936375), 936375).
conf(897642, 897198).
inConf((897642, 897198), 897642).
inConf((897642, 897198), 897198).
conf(1057485, 1057014).
inConf((1057485, 1057014), 1057485).
inConf((1057485, 1057014), 1057014).
conf(897233, 897198).
inConf((897233, 897198), 897233).
inConf((897233, 897198), 897198).
conf(1057256, 1057014).
inConf((1057256, 1057014), 1057256).
inConf((1057256, 1057014), 1057014).
conf(936588, 936375).
inConf((936588, 936375), 936588).
inConf((936588, 936375), 936375).
conf(1431675, 286629).
inConf((1431675, 286629), 1431675).
inConf((1431675, 286629), 286629).
conf(897498, 897198).
inConf((897498, 897198), 897498).
inConf((897498, 897198), 897198).
conf(1844762, 288455).
inConf((1844762, 288455), 1844762).
inConf((1844762, 288455), 288455).
conf(1057341, 1057014).
inConf((1057341, 1057014), 1057341).
inConf((1057341, 1057014), 1057014).
conf(1057112, 1057014).
inConf((1057112, 1057014), 1057112).
inConf((1057112, 1057014), 1057014).
conf(936444, 936375).
inConf((936444, 936375), 936444).
inConf((936444, 936375), 936375).
conf(288665, 1789323).
inConf((288665, 1789323), 288665).
inConf((288665, 1789323), 1789323).
conf(48761, 446157).
inConf((48761, 446157), 48761).
inConf((48761, 446157), 446157).
conf(897354, 897198).
inConf((897354, 897198), 897354).
inConf((897354, 897198), 897198).
conf(1057377, 1057014).
inConf((1057377, 1057014), 1057377).
inConf((1057377, 1057014), 1057014).
conf(936709, 936375).
inConf((936709, 936375), 936709).
inConf((936709, 936375), 936375).
conf(936480, 936375).
inConf((936480, 936375), 936480).
inConf((936480, 936375), 936375).
conf(860325, 1539981).
inConf((860325, 1539981), 860325).
inConf((860325, 1539981), 1539981).
conf(897619, 897198).
inConf((897619, 897198), 897619).
inConf((897619, 897198), 897198).
conf(36796, 936375).
inConf((36796, 936375), 36796).
inConf((36796, 936375), 936375).
conf(897210, 897198).
inConf((897210, 897198), 897210).
inConf((897210, 897198), 897198).
conf(1057233, 1057014).
inConf((1057233, 1057014), 1057233).
inConf((1057233, 1057014), 1057014).
conf(936745, 936375).
inConf((936745, 936375), 936745).
inConf((936745, 936375), 936375).
conf(2056816, 897198).
inConf((2056816, 897198), 2056816).
inConf((2056816, 897198), 897198).
conf(132202, 1995708).
inConf((132202, 1995708), 132202).
inConf((132202, 1995708), 1995708).
conf(897475, 897198).
inConf((897475, 897198), 897475).
inConf((897475, 897198), 897198).
conf(1057498, 1057014).
inConf((1057498, 1057014), 1057498).
inConf((1057498, 1057014), 1057014).
conf(936830, 936375).
inConf((936830, 936375), 936830).
inConf((936830, 936375), 936375).
conf(1057089, 1057014).
inConf((1057089, 1057014), 1057089).
inConf((1057089, 1057014), 1057014).
conf(936601, 936375).
inConf((936601, 936375), 936601).
inConf((936601, 936375), 936375).
conf(2049898, 936375).
inConf((2049898, 936375), 2049898).
inConf((2049898, 936375), 936375).
conf(897331, 897198).
inConf((897331, 897198), 897331).
inConf((897331, 897198), 897198).
conf(833266, 2).
inConf((833266, 2), 833266).
inConf((833266, 2), 2).
conf(1057354, 1057014).
inConf((1057354, 1057014), 1057354).
inConf((1057354, 1057014), 1057014).
conf(1370405, 936375).
inConf((1370405, 936375), 1370405).
inConf((1370405, 936375), 936375).
conf(936457, 936375).
inConf((936457, 936375), 936457).
inConf((936457, 936375), 936375).
conf(897596, 897198).
inConf((897596, 897198), 897596).
inConf((897596, 897198), 897198).
conf(288665, 1789156).
inConf((288665, 1789156), 288665).
inConf((288665, 1789156), 1789156).
conf(897198, 897367).
inConf((897198, 897367), 897198).
inConf((897198, 897367), 897367).
conf(1057210, 1057014).
inConf((1057210, 1057014), 1057210).
inConf((1057210, 1057014), 1057014).
conf(28091, 286447).
inConf((28091, 286447), 28091).
inConf((28091, 286447), 286447).
conf(936722, 936375).
inConf((936722, 936375), 936722).
inConf((936722, 936375), 936375).
conf(1760155, 46829).
inConf((1760155, 46829), 1760155).
inConf((1760155, 46829), 46829).
conf(1363408, 1539427).
inConf((1363408, 1539427), 1363408).
inConf((1363408, 1539427), 1539427).
conf(1512607, 286447).
inConf((1512607, 286447), 1512607).
inConf((1512607, 286447), 286447).
conf(897452, 897198).
inConf((897452, 897198), 897452).
inConf((897452, 897198), 897198).
conf(1057475, 1057014).
inConf((1057475, 1057014), 1057475).
inConf((1057475, 1057014), 1057014).
conf(130656, 828514).
inConf((130656, 828514), 130656).
inConf((130656, 828514), 828514).
conf(897198, 897223).
inConf((897198, 897223), 897198).
inConf((897198, 897223), 897223).
conf(1057066, 1057014).
inConf((1057066, 1057014), 1057066).
inConf((1057066, 1057014), 1057014).
conf(936578, 936375).
inConf((936578, 936375), 936578).
inConf((936578, 936375), 936375).
conf(897717, 897198).
inConf((897717, 897198), 897717).
inConf((897717, 897198), 897198).
conf(897488, 897198).
inConf((897488, 897198), 897488).
inConf((897488, 897198), 897198).
conf(1057331, 1057014).
inConf((1057331, 1057014), 1057331).
inConf((1057331, 1057014), 1057014).
conf(1057102, 1057014).
inConf((1057102, 1057014), 1057102).
inConf((1057102, 1057014), 1057014).
conf(1540115, 860325).
inConf((1540115, 860325), 1540115).
inConf((1540115, 860325), 860325).
conf(936434, 936375).
inConf((936434, 936375), 936434).
inConf((936434, 936375), 936375).
conf(1539688, 46489).
inConf((1539688, 46489), 1539688).
inConf((1539688, 46489), 46489).
conf(2055244, 936375).
inConf((2055244, 936375), 2055244).
inConf((2055244, 936375), 936375).
conf(897344, 897198).
inConf((897344, 897198), 897344).
inConf((897344, 897198), 897198).
conf(1057187, 1057014).
inConf((1057187, 1057014), 1057187).
inConf((1057187, 1057014), 1057014).
conf(1962144, 286629).
inConf((1962144, 286629), 1962144).
inConf((1962144, 286629), 286629).
conf(936699, 936375).
inConf((936699, 936375), 936699).
inConf((936699, 936375), 936375).
conf(897609, 897198).
inConf((897609, 897198), 897609).
inConf((897609, 897198), 897198).
conf(1057452, 1057014).
inConf((1057452, 1057014), 1057452).
inConf((1057452, 1057014), 1057014).
conf(1057014, 1057223).
inConf((1057014, 1057223), 1057014).
inConf((1057014, 1057223), 1057223).
conf(936555, 936375).
inConf((936555, 936375), 936555).
inConf((936555, 936375), 936375).
conf(1789308, 46324).
inConf((1789308, 46324), 1789308).
inConf((1789308, 46324), 46324).
conf(897465, 897198).
inConf((897465, 897198), 897465).
inConf((897465, 897198), 897198).
conf(936820, 936375).
inConf((936820, 936375), 936820).
inConf((936820, 936375), 936375).
conf(1057014, 1057079).
inConf((1057014, 1057079), 1057014).
inConf((1057014, 1057079), 1057079).
conf(936411, 936375).
inConf((936411, 936375), 936411).
inConf((936411, 936375), 936375).
conf(1057573, 1057014).
inConf((1057573, 1057014), 1057573).
inConf((1057573, 1057014), 1057014).
conf(43600, 1872976).
inConf((43600, 1872976), 43600).
inConf((43600, 1872976), 1872976).
conf(1057344, 1057014).
inConf((1057344, 1057014), 1057344).
inConf((1057344, 1057014), 1057014).
conf(897321, 897198).
inConf((897321, 897198), 897321).
inConf((897321, 897198), 897198).
conf(936676, 936375).
inConf((936676, 936375), 936676).
inConf((936676, 936375), 936375).
conf(936447, 936375).
inConf((936447, 936375), 936447).
inConf((936447, 936375), 936375).
conf(1057014, 447367).
inConf((1057014, 447367), 1057014).
inConf((1057014, 447367), 447367).
conf(897586, 897198).
inConf((897586, 897198), 897586).
inConf((897586, 897198), 897198).
conf(2050282, 897198).
inConf((2050282, 897198), 2050282).
inConf((2050282, 897198), 897198).
conf(1512332, 286447).
inConf((1512332, 286447), 1512332).
inConf((1512332, 286447), 286447).
conf(1057200, 1057014).
inConf((1057200, 1057014), 1057200).
inConf((1057200, 1057014), 1057014).
conf(936712, 936375).
inConf((936712, 936375), 936712).
inConf((936712, 936375), 936375).
conf(2052633, 936375).
inConf((2052633, 936375), 2052633).
inConf((2052633, 936375), 936375).
conf(2049335, 936375).
inConf((2049335, 936375), 2049335).
inConf((2049335, 936375), 936375).
conf(370283, 129532).
inConf((370283, 129532), 370283).
inConf((370283, 129532), 129532).
conf(43600, 1873097).
inConf((43600, 1873097), 43600).
inConf((43600, 1873097), 1873097).
conf(1057465, 1057014).
inConf((1057465, 1057014), 1057465).
inConf((1057465, 1057014), 1057014).
conf(1432293, 286629).
inConf((1432293, 286629), 1432293).
inConf((1432293, 286629), 286629).
conf(897213, 897198).
inConf((897213, 897198), 897213).
inConf((897213, 897198), 897198).
conf(897198, 2049055).
inConf((897198, 2049055), 897198).
inConf((897198, 2049055), 2049055).
conf(897442, 897198).
inConf((897442, 897198), 897442).
inConf((897442, 897198), 897198).
conf(936797, 936375).
inConf((936797, 936375), 936797).
inConf((936797, 936375), 936375).
conf(1057056, 1057014).
inConf((1057056, 1057014), 1057056).
inConf((1057056, 1057014), 1057014).
conf(936568, 936375).
inConf((936568, 936375), 936568).
inConf((936568, 936375), 936375).
conf(897707, 897198).
inConf((897707, 897198), 897707).
inConf((897707, 897198), 897198).
conf(1361104, 1377897).
inConf((1361104, 1377897), 1361104).
inConf((1361104, 1377897), 1377897).
conf(897298, 897198).
inConf((897298, 897198), 897298).
inConf((897298, 897198), 897198).
conf(1057321, 1057014).
inConf((1057321, 1057014), 1057321).
inConf((1057321, 1057014), 1057014).
conf(936833, 936375).
inConf((936833, 936375), 936833).
inConf((936833, 936375), 936375).
conf(936424, 936375).
inConf((936424, 936375), 936424).
inConf((936424, 936375), 936375).
conf(897563, 897198).
inConf((897563, 897198), 897563).
inConf((897563, 897198), 897198).
conf(1057014, 1370543).
inConf((1057014, 1370543), 1057014).
inConf((1057014, 1370543), 1370543).
conf(1539696, 860325).
inConf((1539696, 860325), 1539696).
inConf((1539696, 860325), 860325).
conf(897334, 897198).
inConf((897334, 897198), 897334).
inConf((897334, 897198), 897198).
conf(1057177, 1057014).
inConf((1057177, 1057014), 1057177).
inConf((1057177, 1057014), 1057014).
conf(936689, 936375).
inConf((936689, 936375), 936689).
inConf((936689, 936375), 936375).
conf(589604, 1933965).
inConf((589604, 1933965), 589604).
inConf((589604, 1933965), 1933965).
conf(760100, 369678).
inConf((760100, 369678), 760100).
inConf((760100, 369678), 369678).
conf(897198, 897599).
inConf((897198, 897599), 897198).
inConf((897198, 897599), 897599).
conf(530577, 759877).
inConf((530577, 759877), 530577).
inConf((530577, 759877), 759877).
conf(1486962, 858749).
inConf((1486962, 858749), 1486962).
inConf((1486962, 858749), 858749).
conf(1057442, 1057014).
inConf((1057442, 1057014), 1057442).
inConf((1057442, 1057014), 1057014).
conf(1057033, 1057014).
inConf((1057033, 1057014), 1057033).
inConf((1057033, 1057014), 1057014).
conf(936545, 936375).
inConf((936545, 936375), 936545).
inConf((936545, 936375), 936375).
conf(897684, 897198).
inConf((897684, 897198), 897684).
inConf((897684, 897198), 897198).
conf(897198, 897455).
inConf((897198, 897455), 897198).
inConf((897198, 897455), 897455).
conf(1512430, 286447).
inConf((1512430, 286447), 1512430).
inConf((1512430, 286447), 286447).
conf(1057298, 1057014).
inConf((1057298, 1057014), 1057298).
inConf((1057298, 1057014), 1057014).
conf(936810, 936375).
inConf((936810, 936375), 936810).
inConf((936810, 936375), 936375).
conf(1057069, 1057014).
inConf((1057069, 1057014), 1057069).
inConf((1057069, 1057014), 1057014).
conf(43864, 1760042).
inConf((43864, 1760042), 43864).
inConf((43864, 1760042), 1760042).
conf(936401, 936375).
inConf((936401, 936375), 936401).
inConf((936401, 936375), 936375).
conf(1363408, 324692).
inConf((1363408, 324692), 1363408).
inConf((1363408, 324692), 324692).
conf(1057563, 1057014).
inConf((1057563, 1057014), 1057563).
inConf((1057563, 1057014), 1057014).
conf(43864, 367121).
inConf((43864, 367121), 43864).
inConf((43864, 367121), 367121).
conf(897198, 897311).
inConf((897198, 897311), 897198).
inConf((897198, 897311), 897311).
conf(1057154, 1057014).
inConf((1057154, 1057014), 1057154).
inConf((1057154, 1057014), 1057014).
conf(936666, 936375).
inConf((936666, 936375), 936666).
inConf((936666, 936375), 936375).
conf(2050501, 897198).
inConf((2050501, 897198), 2050501).
inConf((2050501, 897198), 897198).
conf(897576, 897198).
inConf((897576, 897198), 897576).
inConf((897576, 897198), 897198).
conf(1057419, 1057014).
inConf((1057419, 1057014), 1057419).
inConf((1057419, 1057014), 1057014).
conf(1057190, 1057014).
inConf((1057190, 1057014), 1057190).
inConf((1057190, 1057014), 1057014).
conf(936522, 936375).
inConf((936522, 936375), 936522).
inConf((936522, 936375), 936375).
conf(43600, 1872413).
inConf((43600, 1872413), 43600).
inConf((43600, 1872413), 1872413).
conf(897432, 897198).
inConf((897432, 897198), 897432).
inConf((897432, 897198), 897198).
conf(1057014, 1057455).
inConf((1057014, 1057455), 1057014).
inConf((1057014, 1057455), 1057455).
conf(936787, 936375).
inConf((936787, 936375), 936787).
inConf((936787, 936375), 936375).
conf(1057014, 1057046).
inConf((1057014, 1057046), 1057014).
inConf((1057014, 1057046), 1057046).
conf(936558, 936375).
inConf((936558, 936375), 936558).
inConf((936558, 936375), 936375).
conf(897697, 897198).
inConf((897697, 897198), 897697).
inConf((897697, 897198), 897198).
conf(1057540, 1057014).
inConf((1057540, 1057014), 1057540).
inConf((1057540, 1057014), 1057014).
conf(1513346, 286447).
inConf((1513346, 286447), 1513346).
inConf((1513346, 286447), 286447).
conf(897288, 897198).
inConf((897288, 897198), 897288).
inConf((897288, 897198), 897198).
conf(1057014, 1057311).
inConf((1057014, 1057311), 1057014).
inConf((1057014, 1057311), 1057311).
conf(936643, 936375).
inConf((936643, 936375), 936643).
inConf((936643, 936375), 936375).
conf(936414, 936375).
inConf((936414, 936375), 936414).
inConf((936414, 936375), 936375).
conf(897553, 897198).
inConf((897553, 897198), 897553).
inConf((897553, 897198), 897198).
conf(1057576, 1057014).
inConf((1057576, 1057014), 1057576).
inConf((1057576, 1057014), 1057014).
conf(130656, 842170).
inConf((130656, 842170), 130656).
inConf((130656, 842170), 842170).
conf(1057014, 1057167).
inConf((1057014, 1057167), 1057014).
inConf((1057014, 1057167), 1057167).
conf(936679, 936375).
inConf((936679, 936375), 936679).
inConf((936679, 936375), 936375).
conf(897409, 897198).
inConf((897409, 897198), 897409).
inConf((897409, 897198), 897198).
conf(1057432, 1057014).
inConf((1057432, 1057014), 1057432).
inConf((1057432, 1057014), 1057014).
conf(43864, 1761308).
inConf((43864, 1761308), 43864).
inConf((43864, 1761308), 1761308).
conf(1057014, 1057023).
inConf((1057014, 1057023), 1057014).
inConf((1057014, 1057023), 1057023).
conf(936535, 936375).
inConf((936535, 936375), 936535).
inConf((936535, 936375), 936375).
conf(897674, 897198).
inConf((897674, 897198), 897674).
inConf((897674, 897198), 897198).
conf(897265, 897198).
inConf((897265, 897198), 897265).
inConf((897265, 897198), 897198).
conf(1057288, 1057014).
inConf((1057288, 1057014), 1057288).
inConf((1057288, 1057014), 1057014).
conf(936800, 936375).
inConf((936800, 936375), 936800).
inConf((936800, 936375), 936375).
conf(1373228, 936375).
inConf((1373228, 936375), 1373228).
inConf((1373228, 936375), 936375).
conf(936391, 936375).
inConf((936391, 936375), 936391).
inConf((936391, 936375), 936375).
conf(897530, 897198).
inConf((897530, 897198), 897530).
inConf((897530, 897198), 897198).
conf(1057553, 1057014).
inConf((1057553, 1057014), 1057553).
inConf((1057553, 1057014), 1057014).
conf(897301, 897198).
inConf((897301, 897198), 897301).
inConf((897301, 897198), 897198).
conf(1057144, 1057014).
inConf((1057144, 1057014), 1057144).
inConf((1057144, 1057014), 1057014).
conf(936656, 936375).
inConf((936656, 936375), 936656).
inConf((936656, 936375), 936375).
conf(1900137, 332583).
inConf((1900137, 332583), 1900137).
inConf((1900137, 332583), 332583).
conf(1370227, 1873069).
inConf((1370227, 1873069), 1370227).
inConf((1370227, 1873069), 1873069).
conf(897198, 897566).
inConf((897198, 897566), 897198).
inConf((897198, 897566), 897566).
conf(2056369, 936375).
inConf((2056369, 936375), 2056369).
inConf((2056369, 936375), 936375).
conf(1057409, 1057014).
inConf((1057409, 1057014), 1057409).
inConf((1057409, 1057014), 1057014).
conf(130656, 1292).
inConf((130656, 1292), 130656).
inConf((130656, 1292), 1292).
conf(936512, 936375).
inConf((936512, 936375), 936512).
inConf((936512, 936375), 936375).
conf(897651, 897198).
inConf((897651, 897198), 897651).
inConf((897651, 897198), 897198).
conf(897422, 897198).
inConf((897422, 897198), 897422).
inConf((897422, 897198), 897198).
conf(1361104, 1377612).
inConf((1361104, 1377612), 1361104).
inConf((1361104, 1377612), 1377612).
conf(1057265, 1057014).
inConf((1057265, 1057014), 1057265).
inConf((1057265, 1057014), 1057014).
conf(936777, 936375).
inConf((936777, 936375), 936777).
inConf((936777, 936375), 936375).
conf(1057036, 1057014).
inConf((1057036, 1057014), 1057036).
inConf((1057036, 1057014), 1057014).
conf(897198, 897687).
inConf((897198, 897687), 897198).
inConf((897198, 897687), 897687).
conf(1057530, 1057014).
inConf((1057530, 1057014), 1057530).
inConf((1057530, 1057014), 1057014).
conf(897278, 897198).
inConf((897278, 897198), 897278).
inConf((897278, 897198), 897198).
conf(1057301, 1057014).
inConf((1057301, 1057014), 1057301).
inConf((1057301, 1057014), 1057014).
conf(936633, 936375).
inConf((936633, 936375), 936633).
inConf((936633, 936375), 936375).
conf(936404, 936375).
inConf((936404, 936375), 936404).
inConf((936404, 936375), 936375).
conf(1373370, 897198).
inConf((1373370, 897198), 1373370).
inConf((1373370, 897198), 897198).
conf(1539905, 860325).
inConf((1539905, 860325), 1539905).
inConf((1539905, 860325), 860325).
conf(897198, 897543).
inConf((897198, 897543), 897198).
inConf((897198, 897543), 897543).
conf(46489, 1539478).
inConf((46489, 1539478), 46489).
inConf((46489, 1539478), 1539478).
conf(589296, 763606).
inConf((589296, 763606), 589296).
inConf((589296, 763606), 763606).
conf(1057386, 1057014).
inConf((1057386, 1057014), 1057386).
inConf((1057386, 1057014), 1057014).
conf(1057157, 1057014).
inConf((1057157, 1057014), 1057157).
inConf((1057157, 1057014), 1057014).
conf(936489, 936375).
inConf((936489, 936375), 936489).
inConf((936489, 936375), 936375).
conf(897198, 897399).
inConf((897198, 897399), 897198).
inConf((897198, 897399), 897399).
conf(1057422, 1057014).
inConf((1057422, 1057014), 1057422).
inConf((1057422, 1057014), 1057014).
conf(936754, 936375).
inConf((936754, 936375), 936754).
inConf((936754, 936375), 936375).
conf(936525, 936375).
inConf((936525, 936375), 936525).
inConf((936525, 936375), 936375).
conf(288665, 1789453).
inConf((288665, 1789453), 288665).
inConf((288665, 1789453), 1789453).
conf(897664, 897198).
inConf((897664, 897198), 897664).
inConf((897664, 897198), 897198).
conf(1539797, 860325).
inConf((1539797, 860325), 1539797).
inConf((1539797, 860325), 860325).
conf(897198, 897255).
inConf((897198, 897255), 897198).
inConf((897198, 897255), 897255).
conf(1057014, 1057278).
inConf((1057014, 1057278), 1057014).
inConf((1057014, 1057278), 1057278).
conf(936790, 936375).
inConf((936790, 936375), 936790).
inConf((936790, 936375), 936375).
conf(936381, 936375).
inConf((936381, 936375), 936381).
inConf((936381, 936375), 936375).
conf(897520, 897198).
inConf((897520, 897198), 897520).
inConf((897520, 897198), 897198).
conf(1057014, 1057543).
inConf((1057014, 1057543), 1057014).
inConf((1057014, 1057543), 1057543).
conf(1057134, 1057014).
inConf((1057134, 1057014), 1057134).
inConf((1057134, 1057014), 1057014).
conf(936646, 936375).
inConf((936646, 936375), 936646).
inConf((936646, 936375), 936375).
conf(2050481, 897198).
inConf((2050481, 897198), 2050481).
inConf((2050481, 897198), 897198).
conf(897376, 897198).
inConf((897376, 897198), 897376).
inConf((897376, 897198), 897198).
conf(1057014, 1057399).
inConf((1057014, 1057399), 1057014).
inConf((1057014, 1057399), 1057399).
conf(936502, 936375).
inConf((936502, 936375), 936502).
inConf((936502, 936375), 936375).
conf(46324, 1789484).
inConf((46324, 1789484), 46324).
inConf((46324, 1789484), 1789484).
conf(897641, 897198).
inConf((897641, 897198), 897641).
inConf((897641, 897198), 897198).
conf(43864, 1760637).
inConf((43864, 1760637), 43864).
inConf((43864, 1760637), 1760637).
conf(897412, 897198).
inConf((897412, 897198), 897412).
inConf((897412, 897198), 897198).
conf(1057014, 1376399).
inConf((1057014, 1376399), 1057014).
inConf((1057014, 1376399), 1376399).
conf(1057014, 1057255).
inConf((1057014, 1057255), 1057014).
inConf((1057014, 1057255), 1057255).
conf(936767, 936375).
inConf((936767, 936375), 936767).
inConf((936767, 936375), 936375).
conf(1512652, 286447).
inConf((1512652, 286447), 1512652).
inConf((1512652, 286447), 286447).
conf(897497, 897198).
inConf((897497, 897198), 897497).
inConf((897497, 897198), 897198).
conf(1057520, 1057014).
inConf((1057520, 1057014), 1057520).
inConf((1057520, 1057014), 1057014).
conf(897268, 897198).
inConf((897268, 897198), 897268).
inConf((897268, 897198), 897198).
conf(1057014, 1057111).
inConf((1057014, 1057111), 1057014).
inConf((1057014, 1057111), 1057111).
conf(936623, 936375).
inConf((936623, 936375), 936623).
inConf((936623, 936375), 936375).
conf(286629, 1431710).
inConf((286629, 1431710), 286629).
inConf((286629, 1431710), 1431710).
conf(897533, 897198).
inConf((897533, 897198), 897533).
inConf((897533, 897198), 897198).
conf(1057376, 1057014).
inConf((1057376, 1057014), 1057376).
inConf((1057376, 1057014), 1057014).
conf(1057147, 1057014).
inConf((1057147, 1057014), 1057147).
inConf((1057147, 1057014), 1057014).
conf(936479, 936375).
inConf((936479, 936375), 936479).
inConf((936479, 936375), 936375).
conf(897389, 897198).
inConf((897389, 897198), 897389).
inConf((897389, 897198), 897198).
conf(1486523, 858749).
inConf((1486523, 858749), 1486523).
inConf((1486523, 858749), 858749).
conf(1057232, 1057014).
inConf((1057232, 1057014), 1057232).
inConf((1057232, 1057014), 1057014).
conf(936744, 936375).
inConf((936744, 936375), 936744).
inConf((936744, 936375), 936375).
conf(897654, 897198).
inConf((897654, 897198), 897654).
inConf((897654, 897198), 897198).
conf(16002, 46829).
inConf((16002, 46829), 16002).
inConf((16002, 46829), 46829).
conf(1057497, 1057014).
inConf((1057497, 1057014), 1057497).
inConf((1057497, 1057014), 1057014).
conf(897245, 897198).
inConf((897245, 897198), 897245).
inConf((897245, 897198), 897198).
conf(1057268, 1057014).
inConf((1057268, 1057014), 1057268).
inConf((1057268, 1057014), 1057014).
conf(936600, 936375).
inConf((936600, 936375), 936600).
inConf((936600, 936375), 936375).
conf(897510, 897198).
inConf((897510, 897198), 897510).
inConf((897510, 897198), 897198).
conf(2046779, 936375).
inConf((2046779, 936375), 2046779).
inConf((2046779, 936375), 936375).
conf(46489, 1539445).
inConf((46489, 1539445), 46489).
inConf((46489, 1539445), 1539445).
conf(1057124, 1057014).
inConf((1057124, 1057014), 1057124).
inConf((1057124, 1057014), 1057014).
conf(2049165, 1057014).
inConf((2049165, 1057014), 2049165).
inConf((2049165, 1057014), 1057014).
conf(1363408, 1539570).
inConf((1363408, 1539570), 1363408).
inConf((1363408, 1539570), 1539570).
conf(936456, 936375).
inConf((936456, 936375), 936456).
inConf((936456, 936375), 936375).
conf(2040667, 369699).
inConf((2040667, 369699), 2040667).
inConf((2040667, 369699), 369699).
conf(1372561, 1057014).
inConf((1372561, 1057014), 1372561).
inConf((1372561, 1057014), 1057014).
conf(897366, 897198).
inConf((897366, 897198), 897366).
inConf((897366, 897198), 897198).
conf(1057389, 1057014).
inConf((1057389, 1057014), 1057389).
inConf((1057389, 1057014), 1057014).
conf(936721, 936375).
inConf((936721, 936375), 936721).
inConf((936721, 936375), 936375).
conf(936492, 936375).
inConf((936492, 936375), 936492).
inConf((936492, 936375), 936375).
conf(897198, 897631).
inConf((897198, 897631), 897198).
inConf((897198, 897631), 897631).
conf(897222, 897198).
inConf((897222, 897198), 897222).
inConf((897222, 897198), 897198).
conf(1057245, 1057014).
inConf((1057245, 1057014), 1057245).
inConf((1057245, 1057014), 1057014).
conf(936757, 936375).
inConf((936757, 936375), 936757).
inConf((936757, 936375), 936375).
conf(897198, 897487).
inConf((897198, 897487), 897198).
inConf((897198, 897487), 897487).
conf(288665, 447274).
inConf((288665, 447274), 288665).
inConf((288665, 447274), 447274).
conf(1057014, 1057510).
inConf((1057014, 1057510), 1057014).
inConf((1057014, 1057510), 1057510).
conf(897258, 897198).
inConf((897258, 897198), 897258).
inConf((897258, 897198), 897198).
conf(490953, 897198).
inConf((490953, 897198), 490953).
inConf((490953, 897198), 897198).
conf(447592, 1999647).
inConf((447592, 1999647), 447592).
inConf((447592, 1999647), 1999647).
conf(1057101, 1057014).
inConf((1057101, 1057014), 1057101).
inConf((1057101, 1057014), 1057014).
conf(936613, 936375).
inConf((936613, 936375), 936613).
inConf((936613, 936375), 936375).
conf(46829, 1760046).
inConf((46829, 1760046), 46829).
inConf((46829, 1760046), 1760046).
conf(1431700, 286629).
inConf((1431700, 286629), 1431700).
inConf((1431700, 286629), 286629).
conf(1372947, 1057014).
inConf((1372947, 1057014), 1372947).
inConf((1372947, 1057014), 1057014).
conf(1374353, 936375).
inConf((1374353, 936375), 1374353).
inConf((1374353, 936375), 936375).
conf(1363408, 1539547).
inConf((1363408, 1539547), 1363408).
inConf((1363408, 1539547), 1539547).
conf(897198, 897343).
inConf((897198, 897343), 897198).
inConf((897198, 897343), 897343).
conf(1057366, 1057014).
inConf((1057366, 1057014), 1057366).
inConf((1057366, 1057014), 1057014).
conf(1845690, 288455).
inConf((1845690, 288455), 1845690).
inConf((1845690, 288455), 288455).
conf(936469, 936375).
inConf((936469, 936375), 936469).
inConf((936469, 936375), 936375).
conf(897608, 897198).
inConf((897608, 897198), 897608).
inConf((897608, 897198), 897198).
conf(1432459, 286629).
inConf((1432459, 286629), 1432459).
inConf((1432459, 286629), 286629).
conf(1513437, 286447).
inConf((1513437, 286447), 1513437).
inConf((1513437, 286447), 286447).
conf(897379, 897198).
inConf((897379, 897198), 897379).
inConf((897379, 897198), 897198).
conf(1057222, 1057014).
inConf((1057222, 1057014), 1057222).
inConf((1057222, 1057014), 1057014).
conf(936734, 936375).
inConf((936734, 936375), 936734).
inConf((936734, 936375), 936375).
conf(897644, 897198).
inConf((897644, 897198), 897644).
inConf((897644, 897198), 897198).
conf(897198, 2047271).
inConf((897198, 2047271), 897198).
inConf((897198, 2047271), 2047271).
conf(1057014, 1057487).
inConf((1057014, 1057487), 1057014).
inConf((1057014, 1057487), 1057487).
conf(1845811, 288455).
inConf((1845811, 288455), 1845811).
inConf((1845811, 288455), 288455).
conf(1361104, 19761).
inConf((1361104, 19761), 1361104).
inConf((1361104, 19761), 19761).
conf(897235, 897198).
inConf((897235, 897198), 897235).
inConf((897235, 897198), 897198).
conf(1057078, 1057014).
inConf((1057078, 1057014), 1057078).
inConf((1057078, 1057014), 1057014).
conf(936590, 936375).
inConf((936590, 936375), 936590).
inConf((936590, 936375), 936375).
conf(46489, 1539844).
inConf((46489, 1539844), 46489).
inConf((46489, 1539844), 1539844).
conf(897500, 897198).
inConf((897500, 897198), 897500).
inConf((897500, 897198), 897198).
conf(43864, 1760496).
inConf((43864, 1760496), 43864).
inConf((43864, 1760496), 1760496).
conf(1057014, 1057343).
inConf((1057014, 1057343), 1057014).
inConf((1057014, 1057343), 1057343).
conf(1057114, 1057014).
inConf((1057114, 1057014), 1057114).
inConf((1057114, 1057014), 1057014).
conf(288665, 1788651).
inConf((288665, 1788651), 288665).
inConf((288665, 1788651), 1788651).
conf(936446, 936375).
inConf((936446, 936375), 936446).
inConf((936446, 936375), 936375).
conf(46489, 1539700).
inConf((46489, 1539700), 46489).
inConf((46489, 1539700), 1539700).
conf(897356, 897198).
inConf((897356, 897198), 897356).
inConf((897356, 897198), 897198).
conf(897198, 1371871).
inConf((897198, 1371871), 897198).
inConf((897198, 1371871), 1371871).
conf(286629, 1432207).
inConf((286629, 1432207), 286629).
inConf((286629, 1432207), 1432207).
conf(1845703, 288455).
inConf((1845703, 288455), 1845703).
inConf((1845703, 288455), 288455).
conf(1057014, 1057199).
inConf((1057014, 1057199), 1057014).
inConf((1057014, 1057199), 1057199).
conf(936711, 936375).
inConf((936711, 936375), 936711).
inConf((936711, 936375), 936375).
conf(1370227, 1873124).
inConf((1370227, 1873124), 1370227).
inConf((1370227, 1873124), 1873124).
conf(1370601, 1057014).
inConf((1370601, 1057014), 1370601).
inConf((1370601, 1057014), 1057014).
conf(897621, 897198).
inConf((897621, 897198), 897621).
inConf((897621, 897198), 897198).
conf(1361104, 1377811).
inConf((1361104, 1377811), 1361104).
inConf((1361104, 1377811), 1377811).
conf(1057464, 1057014).
inConf((1057464, 1057014), 1057464).
inConf((1057464, 1057014), 1057014).
conf(897212, 897198).
inConf((897212, 897198), 897212).
inConf((897212, 897198), 897198).
conf(1057235, 1057014).
inConf((1057235, 1057014), 1057235).
inConf((1057235, 1057014), 1057014).
conf(43864, 1760208).
inConf((43864, 1760208), 43864).
inConf((43864, 1760208), 1760208).
conf(936567, 936375).
inConf((936567, 936375), 936567).
inConf((936567, 936375), 936375).
conf(2044846, 1057014).
inConf((2044846, 1057014), 2044846).
inConf((2044846, 1057014), 1057014).
conf(897477, 897198).
inConf((897477, 897198), 897477).
inConf((897477, 897198), 897198).
conf(1057500, 1057014).
inConf((1057500, 1057014), 1057500).
inConf((1057500, 1057014), 1057014).
conf(936832, 936375).
inConf((936832, 936375), 936832).
inConf((936832, 936375), 936375).
conf(1057091, 1057014).
inConf((1057091, 1057014), 1057091).
inConf((1057091, 1057014), 1057014).
conf(936603, 936375).
inConf((936603, 936375), 936603).
inConf((936603, 936375), 936375).
conf(897333, 897198).
inConf((897333, 897198), 897333).
inConf((897333, 897198), 897198).
conf(1057356, 1057014).
inConf((1057356, 1057014), 1057356).
inConf((1057356, 1057014), 1057014).
conf(936688, 936375).
inConf((936688, 936375), 936688).
inConf((936688, 936375), 936375).
conf(936459, 936375).
inConf((936459, 936375), 936459).
inConf((936459, 936375), 936375).
conf(897598, 897198).
inConf((897598, 897198), 897598).
inConf((897598, 897198), 897198).
conf(1057212, 1057014).
inConf((1057212, 1057014), 1057212).
inConf((1057212, 1057014), 1057014).
conf(936724, 936375).
inConf((936724, 936375), 936724).
inConf((936724, 936375), 936375).
conf(45848, 1931004).
inConf((45848, 1931004), 45848).
inConf((45848, 1931004), 1931004).
conf(897454, 897198).
inConf((897454, 897198), 897454).
inConf((897454, 897198), 897198).
conf(1057477, 1057014).
inConf((1057477, 1057014), 1057477).
inConf((1057477, 1057014), 1057014).
conf(897225, 897198).
inConf((897225, 897198), 897225).
inConf((897225, 897198), 897198).
conf(1057068, 1057014).
inConf((1057068, 1057014), 1057068).
inConf((1057068, 1057014), 1057014).
conf(936580, 936375).
inConf((936580, 936375), 936580).
inConf((936580, 936375), 936375).
conf(897198, 897719).
inConf((897198, 897719), 897198).
inConf((897198, 897719), 897719).
conf(897198, 897310).
inConf((897198, 897310), 897198).
inConf((897198, 897310), 897310).
conf(1057333, 1057014).
inConf((1057333, 1057014), 1057333).
inConf((1057333, 1057014), 1057014).
conf(1844501, 1368695).
inConf((1844501, 1368695), 1844501).
inConf((1844501, 1368695), 1368695).
conf(46829, 1761181).
inConf((46829, 1761181), 46829).
inConf((46829, 1761181), 1761181).
conf(936436, 936375).
inConf((936436, 936375), 936436).
inConf((936436, 936375), 936375).
conf(897198, 897575).
inConf((897198, 897575), 897198).
inConf((897198, 897575), 897575).
conf(897346, 897198).
inConf((897346, 897198), 897346).
inConf((897346, 897198), 897198).
conf(1057189, 1057014).
inConf((1057189, 1057014), 1057189).
inConf((1057189, 1057014), 1057014).
conf(936701, 936375).
inConf((936701, 936375), 936701).
inConf((936701, 936375), 936375).
conf(2051216, 1057014).
inConf((2051216, 1057014), 2051216).
inConf((2051216, 1057014), 1057014).
conf(1761037, 46829).
inConf((1761037, 46829), 1761037).
inConf((1761037, 46829), 46829).
conf(897611, 897198).
inConf((897611, 897198), 897611).
inConf((897611, 897198), 897198).
conf(1363408, 1539406).
inConf((1363408, 1539406), 1363408).
inConf((1363408, 1539406), 1539406).
conf(1512586, 286447).
inConf((1512586, 286447), 1512586).
inConf((1512586, 286447), 286447).
conf(1057454, 1057014).
inConf((1057454, 1057014), 1057454).
inConf((1057454, 1057014), 1057014).
conf(1057045, 1057014).
inConf((1057045, 1057014), 1057045).
inConf((1057045, 1057014), 1057014).
conf(936557, 936375).
inConf((936557, 936375), 936557).
inConf((936557, 936375), 936375).
conf(46324, 29052).
inConf((46324, 29052), 46324).
inConf((46324, 29052), 29052).
conf(897696, 897198).
inConf((897696, 897198), 897696).
inConf((897696, 897198), 897198).
conf(897467, 897198).
inConf((897467, 897198), 897467).
inConf((897467, 897198), 897198).
conf(1057014, 1057310).
inConf((1057014, 1057310), 1057014).
inConf((1057014, 1057310), 1057310).
conf(936822, 936375).
inConf((936822, 936375), 936822).
inConf((936822, 936375), 936375).
conf(1057081, 1057014).
inConf((1057081, 1057014), 1057081).
inConf((1057081, 1057014), 1057014).
conf(1844478, 1368695).
inConf((1844478, 1368695), 1844478).
inConf((1844478, 1368695), 1368695).
conf(2055538, 1057014).
inConf((2055538, 1057014), 2055538).
inConf((2055538, 1057014), 1057014).
conf(367337, 552289).
inConf((367337, 552289), 367337).
inConf((367337, 552289), 552289).
conf(936413, 936375).
inConf((936413, 936375), 936413).
inConf((936413, 936375), 936375).
conf(1361104, 1377922).
inConf((1361104, 1377922), 1361104).
inConf((1361104, 1377922), 1377922).
conf(1057014, 1057575).
inConf((1057014, 1057575), 1057014).
inConf((1057014, 1057575), 1057575).
conf(897323, 897198).
inConf((897323, 897198), 897323).
inConf((897323, 897198), 897198).
conf(1057346, 1057014).
inConf((1057346, 1057014), 1057346).
inConf((1057346, 1057014), 1057014).
conf(43864, 1760319).
inConf((43864, 1760319), 43864).
inConf((43864, 1760319), 1760319).
conf(936678, 936375).
inConf((936678, 936375), 936678).
inConf((936678, 936375), 936375).
conf(936449, 936375).
inConf((936449, 936375), 936449).
inConf((936449, 936375), 936375).
conf(897588, 897198).
inConf((897588, 897198), 897588).
inConf((897588, 897198), 897198).
conf(5664, 131412).
inConf((5664, 131412), 5664).
inConf((5664, 131412), 131412).
conf(1057014, 1057431).
inConf((1057014, 1057431), 1057014).
inConf((1057014, 1057431), 1057431).
conf(1057202, 1057014).
inConf((1057202, 1057014), 1057202).
inConf((1057202, 1057014), 1057014).
conf(936534, 936375).
inConf((936534, 936375), 936534).
inConf((936534, 936375), 936375).
conf(897444, 897198).
inConf((897444, 897198), 897444).
inConf((897444, 897198), 897198).
conf(1057467, 1057014).
inConf((1057467, 1057014), 1057467).
inConf((1057467, 1057014), 1057014).
conf(936799, 936375).
inConf((936799, 936375), 936799).
inConf((936799, 936375), 936375).
conf(1057058, 1057014).
inConf((1057058, 1057014), 1057058).
inConf((1057058, 1057014), 1057014).
conf(1512864, 286447).
inConf((1512864, 286447), 1512864).
inConf((1512864, 286447), 286447).
conf(936570, 936375).
inConf((936570, 936375), 936570).
inConf((936570, 936375), 936375).
conf(2044089, 936375).
inConf((2044089, 936375), 2044089).
inConf((2044089, 936375), 936375).
conf(490777, 288455).
inConf((490777, 288455), 490777).
inConf((490777, 288455), 288455).
conf(897709, 897198).
inConf((897709, 897198), 897709).
inConf((897709, 897198), 897198).
conf(1733979, 9695).
inConf((1733979, 9695), 1733979).
inConf((1733979, 9695), 9695).
conf(1844624, 42124).
inConf((1844624, 42124), 1844624).
inConf((1844624, 42124), 42124).
conf(897300, 897198).
inConf((897300, 897198), 897300).
inConf((897300, 897198), 897198).
conf(1057323, 1057014).
inConf((1057323, 1057014), 1057323).
inConf((1057323, 1057014), 1057014).
conf(936835, 936375).
inConf((936835, 936375), 936835).
inConf((936835, 936375), 936375).
conf(771881, 589604).
inConf((771881, 589604), 771881).
inConf((771881, 589604), 589604).
conf(1372489, 897198).
inConf((1372489, 897198), 1372489).
inConf((1372489, 897198), 897198).
conf(936426, 936375).
inConf((936426, 936375), 936426).
inConf((936426, 936375), 936375).
conf(760354, 433119).
inConf((760354, 433119), 760354).
inConf((760354, 433119), 433119).
conf(897565, 897198).
inConf((897565, 897198), 897565).
inConf((897565, 897198), 897198).
conf(288665, 1789125).
inConf((288665, 1789125), 288665).
inConf((288665, 1789125), 1789125).
conf(1057179, 1057014).
inConf((1057179, 1057014), 1057179).
inConf((1057179, 1057014), 1057014).
conf(936691, 936375).
inConf((936691, 936375), 936691).
inConf((936691, 936375), 936375).
conf(759860, 132151).
inConf((759860, 132151), 759860).
inConf((759860, 132151), 132151).
conf(897421, 897198).
inConf((897421, 897198), 897421).
inConf((897421, 897198), 897198).
conf(1057444, 1057014).
inConf((1057444, 1057014), 1057444).
inConf((1057444, 1057014), 1057014).
conf(2053909, 897198).
inConf((2053909, 897198), 2053909).
inConf((2053909, 897198), 897198).
conf(1057035, 1057014).
inConf((1057035, 1057014), 1057035).
inConf((1057035, 1057014), 1057014).
conf(936547, 936375).
inConf((936547, 936375), 936547).
inConf((936547, 936375), 936375).
conf(897686, 897198).
inConf((897686, 897198), 897686).
inConf((897686, 897198), 897198).
conf(897457, 897198).
inConf((897457, 897198), 897457).
inConf((897457, 897198), 897198).
conf(46829, 1760654).
inConf((46829, 1760654), 46829).
inConf((46829, 1760654), 1760654).
conf(1363408, 1539252).
inConf((1363408, 1539252), 1363408).
inConf((1363408, 1539252), 1539252).
conf(1057300, 1057014).
inConf((1057300, 1057014), 1057300).
inConf((1057300, 1057014), 1057014).
conf(1539410, 860325).
inConf((1539410, 860325), 1539410).
inConf((1539410, 860325), 860325).
conf(447592, 759816).
inConf((447592, 759816), 447592).
inConf((447592, 759816), 759816).
conf(1844697, 1368695).
inConf((1844697, 1368695), 1844697).
inConf((1844697, 1368695), 1368695).
conf(897198, 2051959).
inConf((897198, 2051959), 897198).
inConf((897198, 2051959), 2051959).
conf(936812, 936375).
inConf((936812, 936375), 936812).
inConf((936812, 936375), 936375).
conf(761125, 326926).
inConf((761125, 326926), 761125).
inConf((761125, 326926), 326926).
conf(936403, 936375).
inConf((936403, 936375), 936403).
inConf((936403, 936375), 936375).
conf(897198, 897542).
inConf((897198, 897542), 897198).
inConf((897198, 897542), 897542).
conf(1057565, 1057014).
inConf((1057565, 1057014), 1057565).
inConf((1057565, 1057014), 1057014).
conf(897313, 897198).
inConf((897313, 897198), 897313).
inConf((897313, 897198), 897198).
conf(1486676, 858749).
inConf((1486676, 858749), 1486676).
inConf((1486676, 858749), 858749).
conf(1057156, 1057014).
inConf((1057156, 1057014), 1057156).
inConf((1057156, 1057014), 1057014).
conf(936668, 936375).
inConf((936668, 936375), 936668).
inConf((936668, 936375), 936375).
conf(1845480, 288455).
inConf((1845480, 288455), 1845480).
inConf((1845480, 288455), 288455).
conf(491305, 873877).
inConf((491305, 873877), 491305).
inConf((491305, 873877), 873877).
conf(897578, 897198).
inConf((897578, 897198), 897578).
inConf((897578, 897198), 897198).
conf(1943296, 48761).
inConf((1943296, 48761), 1943296).
inConf((1943296, 48761), 48761).
conf(1361104, 1377768).
inConf((1361104, 1377768), 1361104).
inConf((1361104, 1377768), 1377768).
conf(1057421, 1057014).
inConf((1057421, 1057014), 1057421).
inConf((1057421, 1057014), 1057014).
conf(1057192, 1057014).
inConf((1057192, 1057014), 1057192).
inConf((1057192, 1057014), 1057014).
conf(936524, 936375).
inConf((936524, 936375), 936524).
inConf((936524, 936375), 936375).
conf(1346480, 1900137).
inConf((1346480, 1900137), 1346480).
inConf((1346480, 1900137), 1900137).
conf(858749, 1487206).
inConf((858749, 1487206), 858749).
inConf((858749, 1487206), 1487206).
conf(1872034, 1370227).
inConf((1872034, 1370227), 1872034).
inConf((1872034, 1370227), 1370227).
conf(897434, 897198).
inConf((897434, 897198), 897434).
inConf((897434, 897198), 897198).
conf(288665, 1977842).
inConf((288665, 1977842), 288665).
inConf((288665, 1977842), 1977842).
conf(1057277, 1057014).
inConf((1057277, 1057014), 1057277).
inConf((1057277, 1057014), 1057014).
conf(936789, 936375).
inConf((936789, 936375), 936789).
inConf((936789, 936375), 936375).
conf(1057048, 1057014).
inConf((1057048, 1057014), 1057048).
inConf((1057048, 1057014), 1057014).
conf(131412, 832351).
inConf((131412, 832351), 131412).
inConf((131412, 832351), 832351).
conf(897699, 897198).
inConf((897699, 897198), 897699).
inConf((897699, 897198), 897198).
conf(936380, 936375).
inConf((936380, 936375), 936380).
inConf((936380, 936375), 936375).
conf(1057014, 1057542).
inConf((1057014, 1057542), 1057014).
inConf((1057014, 1057542), 1057542).
conf(1872793, 1370227).
inConf((1872793, 1370227), 1872793).
inConf((1872793, 1370227), 1370227).
conf(1057313, 1057014).
inConf((1057313, 1057014), 1057313).
inConf((1057313, 1057014), 1057014).
conf(897290, 897198).
inConf((897290, 897198), 897290).
inConf((897290, 897198), 897198).
conf(48761, 1816010).
inConf((48761, 1816010), 48761).
inConf((48761, 1816010), 1816010).
conf(1486424, 858749).
inConf((1486424, 858749), 1486424).
inConf((1486424, 858749), 858749).
conf(936645, 936375).
inConf((936645, 936375), 936645).
inConf((936645, 936375), 936375).
conf(936416, 936375).
inConf((936416, 936375), 936416).
inConf((936416, 936375), 936375).
conf(897555, 897198).
inConf((897555, 897198), 897555).
inConf((897555, 897198), 897198).
conf(46489, 1539261).
inConf((46489, 1539261), 46489).
inConf((46489, 1539261), 1539261).
conf(1057169, 1057014).
inConf((1057169, 1057014), 1057169).
inConf((1057169, 1057014), 1057014).
conf(936501, 936375).
inConf((936501, 936375), 936501).
inConf((936501, 936375), 936375).
conf(897411, 897198).
inConf((897411, 897198), 897411).
inConf((897411, 897198), 897198).
conf(1057434, 1057014).
inConf((1057434, 1057014), 1057434).
inConf((1057434, 1057014), 1057014).
conf(936766, 936375).
inConf((936766, 936375), 936766).
inConf((936766, 936375), 936375).
conf(1513060, 286447).
inConf((1513060, 286447), 1513060).
inConf((1513060, 286447), 286447).
conf(1057025, 1057014).
inConf((1057025, 1057014), 1057025).
inConf((1057025, 1057014), 1057014).
conf(936537, 936375).
inConf((936537, 936375), 936537).
inConf((936537, 936375), 936375).
conf(1374406, 897198).
inConf((1374406, 897198), 1374406).
inConf((1374406, 897198), 897198).
conf(897676, 897198).
inConf((897676, 897198), 897676).
inConf((897676, 897198), 897198).
conf(2045310, 1057014).
inConf((2045310, 1057014), 2045310).
inConf((2045310, 1057014), 1057014).
conf(897267, 897198).
inConf((897267, 897198), 897267).
inConf((897267, 897198), 897198).
conf(1057290, 1057014).
inConf((1057290, 1057014), 1057290).
inConf((1057290, 1057014), 1057014).
conf(46324, 1977958).
inConf((46324, 1977958), 46324).
inConf((46324, 1977958), 1977958).
conf(936802, 936375).
inConf((936802, 936375), 936802).
inConf((936802, 936375), 936375).
conf(1540074, 860325).
inConf((1540074, 860325), 1540074).
inConf((1540074, 860325), 860325).
conf(936393, 936375).
inConf((936393, 936375), 936393).
inConf((936393, 936375), 936375).
conf(897532, 897198).
inConf((897532, 897198), 897532).
inConf((897532, 897198), 897198).
conf(1057555, 1057014).
inConf((1057555, 1057014), 1057555).
inConf((1057555, 1057014), 1057014).
conf(897198, 897303).
inConf((897198, 897303), 897198).
inConf((897198, 897303), 897303).
conf(1057146, 1057014).
inConf((1057146, 1057014), 1057146).
inConf((1057146, 1057014), 1057014).
conf(936658, 936375).
inConf((936658, 936375), 936658).
inConf((936658, 936375), 936375).
conf(2039992, 369678).
inConf((2039992, 369678), 2039992).
inConf((2039992, 369678), 369678).
conf(131412, 803847).
inConf((131412, 803847), 131412).
inConf((131412, 803847), 803847).
conf(46489, 1539503).
inConf((46489, 1539503), 46489).
inConf((46489, 1539503), 1539503).
conf(1057411, 1057014).
inConf((1057411, 1057014), 1057411).
inConf((1057411, 1057014), 1057014).
conf(1539521, 860325).
inConf((1539521, 860325), 1539521).
inConf((1539521, 860325), 860325).
conf(1844483, 42124).
inConf((1844483, 42124), 1844483).
inConf((1844483, 42124), 42124).
conf(897388, 897198).
inConf((897388, 897198), 897388).
inConf((897388, 897198), 897198).
conf(936514, 936375).
inConf((936514, 936375), 936514).
inConf((936514, 936375), 936375).
conf(1981404, 433119).
inConf((1981404, 433119), 1981404).
inConf((1981404, 433119), 433119).
conf(1734103, 9695).
inConf((1734103, 9695), 1734103).
inConf((1734103, 9695), 9695).
conf(897653, 897198).
inConf((897653, 897198), 897653).
inConf((897653, 897198), 897198).
conf(897424, 897198).
inConf((897424, 897198), 897424).
inConf((897424, 897198), 897198).
conf(2007730, 852327).
inConf((2007730, 852327), 2007730).
inConf((2007730, 852327), 852327).
conf(1057267, 1057014).
inConf((1057267, 1057014), 1057267).
inConf((1057267, 1057014), 1057014).
conf(936779, 936375).
inConf((936779, 936375), 936779).
inConf((936779, 936375), 936375).
conf(1057014, 1057038).
inConf((1057014, 1057038), 1057014).
inConf((1057014, 1057038), 1057038).
conf(897689, 897198).
inConf((897689, 897198), 897689).
inConf((897689, 897198), 897198).
conf(1057532, 1057014).
inConf((1057532, 1057014), 1057532).
inConf((1057532, 1057014), 1057014).
conf(43864, 1760505).
inConf((43864, 1760505), 43864).
inConf((43864, 1760505), 1760505).
conf(897280, 897198).
inConf((897280, 897198), 897280).
inConf((897280, 897198), 897198).
conf(1788840, 288665).
inConf((1788840, 288665), 1788840).
inConf((1788840, 288665), 288665).
conf(1057123, 1057014).
inConf((1057123, 1057014), 1057123).
inConf((1057123, 1057014), 1057014).
conf(936635, 936375).
inConf((936635, 936375), 936635).
inConf((936635, 936375), 936375).
conf(81304, 1057014).
inConf((81304, 1057014), 81304).
inConf((81304, 1057014), 1057014).
conf(42124, 67391).
inConf((42124, 67391), 42124).
inConf((42124, 67391), 67391).
conf(897545, 897198).
inConf((897545, 897198), 897545).
inConf((897545, 897198), 897198).
conf(1057388, 1057014).
inConf((1057388, 1057014), 1057388).
inConf((1057388, 1057014), 1057014).
conf(1057014, 1057159).
inConf((1057014, 1057159), 1057014).
inConf((1057014, 1057159), 1057159).
conf(1363408, 1539605).
inConf((1363408, 1539605), 1363408).
inConf((1363408, 1539605), 1539605).
conf(936491, 936375).
inConf((936491, 936375), 936491).
inConf((936491, 936375), 936375).
conf(1845074, 288455).
inConf((1845074, 288455), 1845074).
inConf((1845074, 288455), 288455).
conf(852533, 416214).
inConf((852533, 416214), 852533).
inConf((852533, 416214), 416214).
conf(897401, 897198).
inConf((897401, 897198), 897401).
inConf((897401, 897198), 897198).
conf(43864, 1760397).
inConf((43864, 1760397), 43864).
inConf((43864, 1760397), 1760397).
conf(1363408, 1539870).
inConf((1363408, 1539870), 1363408).
inConf((1363408, 1539870), 1539870).
conf(1057244, 1057014).
inConf((1057244, 1057014), 1057244).
inConf((1057244, 1057014), 1057014).
conf(936756, 936375).
inConf((936756, 936375), 936756).
inConf((936756, 936375), 936375).
conf(897666, 897198).
inConf((897666, 897198), 897666).
inConf((897666, 897198), 897198).
conf(868097, 369678).
inConf((868097, 369678), 868097).
inConf((868097, 369678), 369678).
conf(1057509, 1057014).
inConf((1057509, 1057014), 1057509).
inConf((1057509, 1057014), 1057014).
conf(897257, 897198).
inConf((897257, 897198), 897257).
inConf((897257, 897198), 897198).
conf(1057280, 1057014).
inConf((1057280, 1057014), 1057280).
inConf((1057280, 1057014), 1057014).
conf(1512107, 43295).
inConf((1512107, 43295), 1512107).
inConf((1512107, 43295), 43295).
conf(2056640, 1057014).
inConf((2056640, 1057014), 2056640).
inConf((2056640, 1057014), 1057014).
conf(2045120, 1057014).
inConf((2045120, 1057014), 2045120).
inConf((2045120, 1057014), 1057014).
conf(379312, 762686).
inConf((379312, 762686), 379312).
inConf((379312, 762686), 762686).
conf(936612, 936375).
inConf((936612, 936375), 936612).
inConf((936612, 936375), 936375).
conf(936383, 936375).
inConf((936383, 936375), 936383).
inConf((936383, 936375), 936375).
conf(897522, 897198).
inConf((897522, 897198), 897522).
inConf((897522, 897198), 897198).
conf(1057545, 1057014).
inConf((1057545, 1057014), 1057545).
inConf((1057545, 1057014), 1057014).
conf(1057136, 1057014).
inConf((1057136, 1057014), 1057136).
inConf((1057136, 1057014), 1057014).
conf(936648, 936375).
inConf((936648, 936375), 936648).
inConf((936648, 936375), 936375).
conf(771492, 131412).
inConf((771492, 131412), 771492).
inConf((771492, 131412), 131412).
conf(286629, 1432638).
inConf((286629, 1432638), 286629).
inConf((286629, 1432638), 1432638).
conf(19995, 288455).
inConf((19995, 288455), 19995).
inConf((19995, 288455), 288455).
conf(897378, 897198).
inConf((897378, 897198), 897378).
inConf((897378, 897198), 897198).
conf(1057401, 1057014).
inConf((1057401, 1057014), 1057401).
inConf((1057401, 1057014), 1057014).
conf(38954, 295166).
inConf((38954, 295166), 38954).
inConf((38954, 295166), 295166).
conf(936733, 936375).
inConf((936733, 936375), 936733).
inConf((936733, 936375), 936375).
conf(936504, 936375).
inConf((936504, 936375), 936504).
inConf((936504, 936375), 936375).
conf(1788529, 288665).
inConf((1788529, 288665), 1788529).
inConf((1788529, 288665), 288665).
conf(1370227, 1947828).
inConf((1370227, 1947828), 1370227).
inConf((1370227, 1947828), 1947828).
conf(897643, 897198).
inConf((897643, 897198), 897643).
inConf((897643, 897198), 897198).
conf(491305, 2012494).
inConf((491305, 2012494), 491305).
inConf((491305, 2012494), 2012494).
conf(897234, 897198).
inConf((897234, 897198), 897234).
inConf((897234, 897198), 897198).
conf(1057257, 1057014).
inConf((1057257, 1057014), 1057257).
inConf((1057257, 1057014), 1057014).
conf(936769, 936375).
inConf((936769, 936375), 936769).
inConf((936769, 936375), 936375).
conf(897499, 897198).
inConf((897499, 897198), 897499).
inConf((897499, 897198), 897198).
conf(1057522, 1057014).
inConf((1057522, 1057014), 1057522).
inConf((1057522, 1057014), 1057014).
conf(2048983, 936375).
inConf((2048983, 936375), 2048983).
inConf((2048983, 936375), 936375).
conf(897270, 897198).
inConf((897270, 897198), 897270).
inConf((897270, 897198), 897198).
conf(43864, 1760266).
inConf((43864, 1760266), 43864).
inConf((43864, 1760266), 1760266).
conf(2048883, 897198).
inConf((2048883, 897198), 2048883).
inConf((2048883, 897198), 897198).
conf(1057113, 1057014).
inConf((1057113, 1057014), 1057113).
inConf((1057113, 1057014), 1057014).
conf(936625, 936375).
inConf((936625, 936375), 936625).
inConf((936625, 936375), 936375).
conf(897355, 897198).
inConf((897355, 897198), 897355).
inConf((897355, 897198), 897198).
conf(1057378, 1057014).
inConf((1057378, 1057014), 1057378).
inConf((1057378, 1057014), 1057014).
conf(936481, 936375).
inConf((936481, 936375), 936481).
inConf((936481, 936375), 936375).
conf(897620, 897198).
inConf((897620, 897198), 897620).
inConf((897620, 897198), 897198).
conf(897198, 897391).
inConf((897198, 897391), 897198).
inConf((897198, 897391), 897391).
conf(1374895, 936375).
inConf((1374895, 936375), 1374895).
inConf((1374895, 936375), 936375).
conf(43864, 1760387).
inConf((43864, 1760387), 43864).
inConf((43864, 1760387), 1760387).
conf(1057234, 1057014).
inConf((1057234, 1057014), 1057234).
inConf((1057234, 1057014), 1057014).
conf(936746, 936375).
inConf((936746, 936375), 936746).
inConf((936746, 936375), 936375).
conf(43864, 1759978).
inConf((43864, 1759978), 43864).
inConf((43864, 1759978), 1759978).
conf(897656, 897198).
inConf((897656, 897198), 897656).
inConf((897656, 897198), 897198).
conf(1370227, 1872076).
inConf((1370227, 1872076), 1370227).
inConf((1370227, 1872076), 1872076).
conf(1057499, 1057014).
inConf((1057499, 1057014), 1057499).
inConf((1057499, 1057014), 1057014).
conf(897198, 897247).
inConf((897198, 897247), 897198).
inConf((897198, 897247), 897247).
conf(1844667, 1368695).
inConf((1844667, 1368695), 1844667).
inConf((1844667, 1368695), 1368695).
conf(1057090, 1057014).
inConf((1057090, 1057014), 1057090).
inConf((1057090, 1057014), 1057014).
conf(936602, 936375).
inConf((936602, 936375), 936602).
inConf((936602, 936375), 936375).
conf(1370227, 1872341).
inConf((1370227, 1872341), 1370227).
inConf((1370227, 1872341), 1872341).
conf(1370227, 446541).
inConf((1370227, 446541), 1370227).
inConf((1370227, 446541), 446541).
conf(875550, 433119).
inConf((875550, 433119), 875550).
inConf((875550, 433119), 433119).
conf(897512, 897198).
inConf((897512, 897198), 897512).
inConf((897512, 897198), 897198).
conf(2047361, 1057014).
inConf((2047361, 1057014), 2047361).
inConf((2047361, 1057014), 1057014).
conf(1057355, 1057014).
inConf((1057355, 1057014), 1057355).
inConf((1057355, 1057014), 1057014).
conf(1057126, 1057014).
inConf((1057126, 1057014), 1057126).
inConf((1057126, 1057014), 1057014).
conf(936458, 936375).
inConf((936458, 936375), 936458).
inConf((936458, 936375), 936375).
conf(897368, 897198).
inConf((897368, 897198), 897368).
inConf((897368, 897198), 897198).
conf(1057014, 1057391).
inConf((1057014, 1057391), 1057014).
inConf((1057014, 1057391), 1057391).
conf(858749, 1486502).
inConf((858749, 1486502), 858749).
inConf((858749, 1486502), 1486502).
conf(936723, 936375).
inConf((936723, 936375), 936723).
inConf((936723, 936375), 936375).
conf(936494, 936375).
inConf((936494, 936375), 936494).
inConf((936494, 936375), 936375).
conf(5899, 50751).
inConf((5899, 50751), 5899).
inConf((5899, 50751), 50751).
conf(897633, 897198).
inConf((897633, 897198), 897633).
inConf((897633, 897198), 897198).
conf(1057476, 1057014).
inConf((1057476, 1057014), 1057476).
inConf((1057476, 1057014), 1057014).
conf(897224, 897198).
inConf((897224, 897198), 897224).
inConf((897224, 897198), 897198).
conf(1057014, 1057247).
inConf((1057014, 1057247), 1057014).
inConf((1057014, 1057247), 1057247).
conf(936579, 936375).
inConf((936579, 936375), 936579).
inConf((936579, 936375), 936375).
conf(369699, 759964).
inConf((369699, 759964), 369699).
inConf((369699, 759964), 759964).
conf(2045181, 936375).
inConf((2045181, 936375), 2045181).
inConf((2045181, 936375), 936375).
conf(1512644, 286447).
inConf((1512644, 286447), 1512644).
inConf((1512644, 286447), 286447).
conf(897489, 897198).
inConf((897489, 897198), 897489).
inConf((897489, 897198), 897198).
conf(1363408, 1539284).
inConf((1363408, 1539284), 1363408).
inConf((1363408, 1539284), 1539284).
conf(1057512, 1057014).
inConf((1057512, 1057014), 1057512).
inConf((1057512, 1057014), 1057014).
conf(491305, 849881).
inConf((491305, 849881), 491305).
inConf((491305, 849881), 849881).
conf(1057014, 1057103).
inConf((1057014, 1057103), 1057014).
inConf((1057014, 1057103), 1057103).
conf(936615, 936375).
inConf((936615, 936375), 936615).
inConf((936615, 936375), 936375).
conf(1760048, 46829).
inConf((1760048, 46829), 1760048).
inConf((1760048, 46829), 46829).
conf(897345, 897198).
inConf((897345, 897198), 897345).
inConf((897345, 897198), 897198).
conf(1057368, 1057014).
inConf((1057368, 1057014), 1057368).
inConf((1057368, 1057014), 1057014).
conf(936471, 936375).
inConf((936471, 936375), 936471).
inConf((936471, 936375), 936375).
conf(897610, 897198).
inConf((897610, 897198), 897610).
inConf((897610, 897198), 897198).
conf(1057224, 1057014).
inConf((1057224, 1057014), 1057224).
inConf((1057224, 1057014), 1057014).
conf(936736, 936375).
inConf((936736, 936375), 936736).
inConf((936736, 936375), 936375).
conf(2050262, 936375).
inConf((2050262, 936375), 2050262).
inConf((2050262, 936375), 936375).
conf(897466, 897198).
inConf((897466, 897198), 897466).
inConf((897466, 897198), 897198).
conf(1057489, 1057014).
inConf((1057489, 1057014), 1057489).
inConf((1057489, 1057014), 1057014).
conf(897237, 897198).
inConf((897237, 897198), 897237).
inConf((897237, 897198), 897198).
conf(1987129, 416214).
inConf((1987129, 416214), 1987129).
inConf((1987129, 416214), 416214).
conf(447592, 869970).
inConf((447592, 869970), 447592).
inConf((447592, 869970), 869970).
conf(1057080, 1057014).
inConf((1057080, 1057014), 1057080).
inConf((1057080, 1057014), 1057014).
conf(936592, 936375).
inConf((936592, 936375), 936592).
inConf((936592, 936375), 936375).
conf(897502, 897198).
inConf((897502, 897198), 897502).
inConf((897502, 897198), 897198).
conf(1057345, 1057014).
inConf((1057345, 1057014), 1057345).
inConf((1057345, 1057014), 1057014).
conf(2045459, 936375).
inConf((2045459, 936375), 2045459).
inConf((2045459, 936375), 936375).
conf(1760964, 46829).
inConf((1760964, 46829), 1760964).
inConf((1760964, 46829), 46829).
conf(936448, 936375).
inConf((936448, 936375), 936448).
inConf((936448, 936375), 936375).
conf(897587, 897198).
inConf((897587, 897198), 897587).
inConf((897587, 897198), 897198).
conf(897358, 897198).
inConf((897358, 897198), 897358).
inConf((897358, 897198), 897198).
conf(1057201, 1057014).
inConf((1057201, 1057014), 1057201).
inConf((1057201, 1057014), 1057014).
conf(936713, 936375).
inConf((936713, 936375), 936713).
inConf((936713, 936375), 936375).
conf(288665, 1789412).
inConf((288665, 1789412), 288665).
inConf((288665, 1789412), 1789412).
conf(897198, 897623).
inConf((897198, 897623), 897198).
inConf((897198, 897623), 897623).
conf(2050010, 936375).
inConf((2050010, 936375), 2050010).
inConf((2050010, 936375), 936375).
conf(1057466, 1057014).
inConf((1057466, 1057014), 1057466).
inConf((1057466, 1057014), 1057014).
conf(1372409, 1057014).
inConf((1372409, 1057014), 1372409).
inConf((1372409, 1057014), 1057014).
conf(897214, 897198).
inConf((897214, 897198), 897214).
inConf((897214, 897198), 897198).
conf(1057237, 1057014).
inConf((1057237, 1057014), 1057237).
inConf((1057237, 1057014), 1057014).
conf(1363408, 1539683).
inConf((1363408, 1539683), 1363408).
inConf((1363408, 1539683), 1539683).
conf(936569, 936375).
inConf((936569, 936375), 936569).
inConf((936569, 936375), 936375).
conf(132202, 2024085).
inConf((132202, 2024085), 132202).
inConf((132202, 2024085), 2024085).
conf(897198, 897479).
inConf((897198, 897479), 897198).
inConf((897198, 897479), 897479).
conf(1057322, 1057014).
inConf((1057322, 1057014), 1057322).
inConf((1057322, 1057014), 1057014).
conf(936834, 936375).
inConf((936834, 936375), 936834).
inConf((936834, 936375), 936375).
conf(1057093, 1057014).
inConf((1057093, 1057014), 1057093).
inConf((1057093, 1057014), 1057014).
conf(936425, 936375).
inConf((936425, 936375), 936425).
inConf((936425, 936375), 936375).
conf(1374516, 1057014).
inConf((1374516, 1057014), 1374516).
inConf((1374516, 1057014), 1057014).
conf(1057358, 1057014).
inConf((1057358, 1057014), 1057358).
inConf((1057358, 1057014), 1057014).
conf(897198, 897335).
inConf((897198, 897335), 897198).
inConf((897198, 897335), 897335).
conf(1845682, 288455).
inConf((1845682, 288455), 1845682).
inConf((1845682, 288455), 288455).
conf(936690, 936375).
inConf((936690, 936375), 936690).
inConf((936690, 936375), 936375).
conf(936461, 936375).
inConf((936461, 936375), 936461).
inConf((936461, 936375), 936375).
conf(897600, 897198).
inConf((897600, 897198), 897600).
inConf((897600, 897198), 897198).
conf(1057214, 1057014).
inConf((1057214, 1057014), 1057214).
inConf((1057214, 1057014), 1057014).
conf(936546, 936375).
inConf((936546, 936375), 936546).
inConf((936546, 936375), 936375).
conf(1361104, 1377152).
inConf((1361104, 1377152), 1361104).
inConf((1361104, 1377152), 1377152).
conf(1376172, 897198).
inConf((1376172, 897198), 1376172).
inConf((1376172, 897198), 897198).
conf(1057014, 1057479).
inConf((1057014, 1057479), 1057014).
inConf((1057014, 1057479), 1057479).
conf(897456, 897198).
inConf((897456, 897198), 897456).
inConf((897456, 897198), 897198).
conf(936811, 936375).
inConf((936811, 936375), 936811).
inConf((936811, 936375), 936375).
conf(1057070, 1057014).
inConf((1057070, 1057014), 1057070).
inConf((1057070, 1057014), 1057014).
conf(936582, 936375).
inConf((936582, 936375), 936582).
inConf((936582, 936375), 936375).
conf(897312, 897198).
inConf((897312, 897198), 897312).
inConf((897312, 897198), 897198).
conf(1057014, 1057335).
inConf((1057014, 1057335), 1057014).
inConf((1057014, 1057335), 1057335).
conf(936438, 936375).
inConf((936438, 936375), 936438).
inConf((936438, 936375), 936375).
conf(43600, 1873232).
inConf((43600, 1873232), 43600).
inConf((43600, 1873232), 1873232).
conf(897577, 897198).
inConf((897577, 897198), 897577).
inConf((897577, 897198), 897198).
conf(897348, 897198).
inConf((897348, 897198), 897348).
inConf((897348, 897198), 897198).
conf(1057014, 1057191).
inConf((1057014, 1057191), 1057014).
inConf((1057014, 1057191), 1057191).
conf(936703, 936375).
inConf((936703, 936375), 936703).
inConf((936703, 936375), 936375).
conf(1512018, 43295).
inConf((1512018, 43295), 1512018).
inConf((1512018, 43295), 43295).
conf(860325, 1539975).
inConf((860325, 1539975), 860325).
inConf((860325, 1539975), 1539975).
conf(897433, 897198).
inConf((897433, 897198), 897433).
inConf((897433, 897198), 897198).
conf(1057456, 1057014).
inConf((1057456, 1057014), 1057456).
inConf((1057456, 1057014), 1057014).
conf(1057014, 1057047).
inConf((1057014, 1057047), 1057014).
inConf((1057014, 1057047), 1057047).
conf(936559, 936375).
inConf((936559, 936375), 936559).
inConf((936559, 936375), 936375).
conf(1376285, 936375).
inConf((1376285, 936375), 1376285).
inConf((1376285, 936375), 936375).
conf(897698, 897198).
inConf((897698, 897198), 897698).
inConf((897698, 897198), 897198).
conf(897469, 897198).
inConf((897469, 897198), 897469).
inConf((897469, 897198), 897198).
conf(1057312, 1057014).
inConf((1057312, 1057014), 1057312).
inConf((1057312, 1057014), 1057014).
conf(936824, 936375).
inConf((936824, 936375), 936824).
inConf((936824, 936375), 936375).
conf(1375776, 897198).
inConf((1375776, 897198), 1375776).
inConf((1375776, 897198), 897198).
conf(1057083, 1057014).
inConf((1057083, 1057014), 1057083).
inConf((1057083, 1057014), 1057014).
conf(936415, 936375).
inConf((936415, 936375), 936415).
inConf((936415, 936375), 936375).
conf(863364, 936375).
inConf((863364, 936375), 863364).
inConf((863364, 936375), 936375).
conf(1057577, 1057014).
inConf((1057577, 1057014), 1057577).
inConf((1057577, 1057014), 1057014).
conf(897325, 897198).
inConf((897325, 897198), 897325).
inConf((897325, 897198), 897198).
conf(2, 834163).
inConf((2, 834163), 2).
inConf((2, 834163), 834163).
conf(130656, 837741).
inConf((130656, 837741), 130656).
inConf((130656, 837741), 837741).
conf(1057168, 1057014).
inConf((1057168, 1057014), 1057168).
inConf((1057168, 1057014), 1057014).
conf(530577, 875755).
inConf((530577, 875755), 530577).
inConf((530577, 875755), 875755).
conf(936680, 936375).
inConf((936680, 936375), 936680).
inConf((936680, 936375), 936375).
conf(897590, 897198).
inConf((897590, 897198), 897590).
inConf((897590, 897198), 897198).
conf(1760787, 46829).
inConf((1760787, 46829), 1760787).
inConf((1760787, 46829), 46829).
conf(1057433, 1057014).
inConf((1057433, 1057014), 1057433).
inConf((1057433, 1057014), 1057014).
conf(1057204, 1057014).
inConf((1057204, 1057014), 1057204).
inConf((1057204, 1057014), 1057014).
conf(1363408, 1539650).
inConf((1363408, 1539650), 1363408).
inConf((1363408, 1539650), 1539650).
conf(936536, 936375).
inConf((936536, 936375), 936536).
inConf((936536, 936375), 936375).
conf(897446, 897198).
inConf((897446, 897198), 897446).
inConf((897446, 897198), 897198).
conf(1057289, 1057014).
inConf((1057289, 1057014), 1057289).
inConf((1057289, 1057014), 1057014).
conf(936801, 936375).
inConf((936801, 936375), 936801).
inConf((936801, 936375), 936375).
conf(1057060, 1057014).
inConf((1057060, 1057014), 1057060).
inConf((1057060, 1057014), 1057014).
conf(897198, 897711).
inConf((897198, 897711), 897198).
inConf((897198, 897711), 897711).
conf(936392, 936375).
inConf((936392, 936375), 936392).
inConf((936392, 936375), 936375).
conf(1057554, 1057014).
inConf((1057554, 1057014), 1057554).
inConf((1057554, 1057014), 1057014).
conf(897198, 897302).
inConf((897198, 897302), 897198).
inConf((897198, 897302), 897302).
conf(1057325, 1057014).
inConf((1057325, 1057014), 1057325).
inConf((1057325, 1057014), 1057014).
conf(2043582, 897198).
inConf((2043582, 897198), 2043582).
inConf((2043582, 897198), 897198).
conf(936657, 936375).
inConf((936657, 936375), 936657).
inConf((936657, 936375), 936375).
conf(936428, 936375).
inConf((936428, 936375), 936428).
inConf((936428, 936375), 936375).
conf(897198, 897567).
inConf((897198, 897567), 897198).
inConf((897198, 897567), 897567).
conf(1057181, 1057014).
inConf((1057181, 1057014), 1057181).
inConf((1057181, 1057014), 1057014).
conf(936693, 936375).
inConf((936693, 936375), 936693).
inConf((936693, 936375), 936375).
conf(2049222, 1057014).
inConf((2049222, 1057014), 2049222).
inConf((2049222, 1057014), 1057014).
conf(1432683, 286629).
inConf((1432683, 286629), 1432683).
inConf((1432683, 286629), 286629).
conf(46489, 29251).
inConf((46489, 29251), 46489).
inConf((46489, 29251), 29251).
conf(897198, 897423).
inConf((897198, 897423), 897198).
inConf((897198, 897423), 897423).
conf(1057446, 1057014).
inConf((1057446, 1057014), 1057446).
inConf((1057446, 1057014), 1057014).
conf(936778, 936375).
inConf((936778, 936375), 936778).
inConf((936778, 936375), 936375).
conf(1057037, 1057014).
inConf((1057037, 1057014), 1057037).
inConf((1057037, 1057014), 1057014).
conf(936549, 936375).
inConf((936549, 936375), 936549).
inConf((936549, 936375), 936375).
conf(897688, 897198).
inConf((897688, 897198), 897688).
inConf((897688, 897198), 897198).
conf(2046634, 1057014).
inConf((2046634, 1057014), 2046634).
inConf((2046634, 1057014), 1057014).
conf(897198, 897279).
inConf((897198, 897279), 897198).
inConf((897198, 897279), 897279).
conf(1057014, 1057302).
inConf((1057014, 1057302), 1057014).
inConf((1057014, 1057302), 1057302).
conf(936814, 936375).
inConf((936814, 936375), 936814).
inConf((936814, 936375), 936375).
conf(860325, 1539183).
inConf((860325, 1539183), 860325).
inConf((860325, 1539183), 1539183).
conf(46829, 1761150).
inConf((46829, 1761150), 46829).
inConf((46829, 1761150), 1761150).
conf(936405, 936375).
inConf((936405, 936375), 936405).
inConf((936405, 936375), 936375).
conf(1361104, 1378143).
inConf((1361104, 1378143), 1361104).
inConf((1361104, 1378143), 1378143).
conf(897544, 897198).
inConf((897544, 897198), 897544).
inConf((897544, 897198), 897198).
conf(2050240, 897198).
inConf((2050240, 897198), 2050240).
inConf((2050240, 897198), 897198).
conf(1057014, 1057567).
inConf((1057014, 1057567), 1057014).
inConf((1057014, 1057567), 1057567).
conf(897315, 897198).
inConf((897315, 897198), 897315).
inConf((897315, 897198), 897198).
conf(1057158, 1057014).
inConf((1057158, 1057014), 1057158).
inConf((1057158, 1057014), 1057014).
conf(936670, 936375).
inConf((936670, 936375), 936670).
inConf((936670, 936375), 936375).
conf(1431757, 286629).
inConf((1431757, 286629), 1431757).
inConf((1431757, 286629), 286629).
conf(897400, 897198).
inConf((897400, 897198), 897400).
inConf((897400, 897198), 897198).
conf(1057014, 1057423).
inConf((1057014, 1057423), 1057014).
inConf((1057014, 1057423), 1057423).
conf(781185, 129532).
inConf((781185, 129532), 781185).
inConf((781185, 129532), 129532).
conf(936526, 936375).
inConf((936526, 936375), 936526).
inConf((936526, 936375), 936375).
conf(897665, 897198).
inConf((897665, 897198), 897665).
inConf((897665, 897198), 897198).
conf(43600, 1873091).
inConf((43600, 1873091), 43600).
inConf((43600, 1873091), 1873091).
conf(897436, 897198).
inConf((897436, 897198), 897436).
inConf((897436, 897198), 897198).
conf(1057014, 1057279).
inConf((1057014, 1057279), 1057014).
inConf((1057014, 1057279), 1057279).
conf(936791, 936375).
inConf((936791, 936375), 936791).
inConf((936791, 936375), 936375).
conf(1057050, 1057014).
inConf((1057050, 1057014), 1057050).
inConf((1057050, 1057014), 1057014).
conf(897701, 897198).
inConf((897701, 897198), 897701).
inConf((897701, 897198), 897198).
conf(936382, 936375).
inConf((936382, 936375), 936382).
inConf((936382, 936375), 936375).
conf(844073, 2).
inConf((844073, 2), 844073).
inConf((844073, 2), 2).
conf(1057544, 1057014).
inConf((1057544, 1057014), 1057544).
inConf((1057544, 1057014), 1057014).
conf(897292, 897198).
inConf((897292, 897198), 897292).
inConf((897292, 897198), 897198).
conf(1057014, 1057135).
inConf((1057014, 1057135), 1057014).
inConf((1057014, 1057135), 1057135).
conf(1951696, 9756).
inConf((1951696, 9756), 1951696).
inConf((1951696, 9756), 9756).
conf(936647, 936375).
inConf((936647, 936375), 936647).
inConf((936647, 936375), 936375).
conf(1370227, 1872157).
inConf((1370227, 1872157), 1370227).
inConf((1370227, 1872157), 1872157).
conf(43600, 1872309).
inConf((43600, 1872309), 43600).
inConf((43600, 1872309), 1872309).
conf(897557, 897198).
inConf((897557, 897198), 897557).
inConf((897557, 897198), 897198).
conf(1057400, 1057014).
inConf((1057400, 1057014), 1057400).
inConf((1057400, 1057014), 1057014).
conf(1057171, 1057014).
inConf((1057171, 1057014), 1057171).
inConf((1057171, 1057014), 1057014).
conf(936503, 936375).
inConf((936503, 936375), 936503).
inConf((936503, 936375), 936375).
conf(897413, 897198).
inConf((897413, 897198), 897413).
inConf((897413, 897198), 897198).
conf(1057436, 1057014).
inConf((1057436, 1057014), 1057436).
inConf((1057436, 1057014), 1057014).
conf(1486547, 858749).
inConf((1486547, 858749), 1486547).
inConf((1486547, 858749), 858749).
conf(936768, 936375).
inConf((936768, 936375), 936768).
inConf((936768, 936375), 936375).
conf(1057027, 1057014).
inConf((1057027, 1057014), 1057027).
inConf((1057027, 1057014), 1057014).
conf(936539, 936375).
inConf((936539, 936375), 936539).
inConf((936539, 936375), 936375).
conf(897678, 897198).
inConf((897678, 897198), 897678).
inConf((897678, 897198), 897198).
conf(125888, 811296).
inConf((125888, 811296), 125888).
inConf((125888, 811296), 811296).
conf(1057521, 1057014).
inConf((1057521, 1057014), 1057521).
inConf((1057521, 1057014), 1057014).
conf(897269, 897198).
inConf((897269, 897198), 897269).
inConf((897269, 897198), 897198).
conf(1057292, 1057014).
inConf((1057292, 1057014), 1057292).
inConf((1057292, 1057014), 1057014).
conf(936624, 936375).
inConf((936624, 936375), 936624).
inConf((936624, 936375), 936375).
conf(1540076, 860325).
inConf((1540076, 860325), 1540076).
inConf((1540076, 860325), 860325).
conf(936395, 936375).
inConf((936395, 936375), 936395).
inConf((936395, 936375), 936375).
conf(897534, 897198).
inConf((897534, 897198), 897534).
inConf((897534, 897198), 897198).
conf(1057557, 1057014).
inConf((1057557, 1057014), 1057557).
inConf((1057557, 1057014), 1057014).
conf(876696, 542057).
inConf((876696, 542057), 876696).
inConf((876696, 542057), 542057).
conf(1057148, 1057014).
inConf((1057148, 1057014), 1057148).
inConf((1057148, 1057014), 1057014).
conf(936660, 936375).
inConf((936660, 936375), 936660).
inConf((936660, 936375), 936375).
conf(1370227, 1872399).
inConf((1370227, 1872399), 1370227).
inConf((1370227, 1872399), 1872399).
conf(288665, 30947).
inConf((288665, 30947), 288665).
inConf((288665, 30947), 30947).
conf(897390, 897198).
inConf((897390, 897198), 897390).
inConf((897390, 897198), 897198).
conf(1057413, 1057014).
inConf((1057413, 1057014), 1057413).
inConf((1057413, 1057014), 1057014).
conf(2048142, 1057014).
inConf((2048142, 1057014), 2048142).
inConf((2048142, 1057014), 1057014).
conf(936516, 936375).
inConf((936516, 936375), 936516).
inConf((936516, 936375), 936375).
conf(897198, 897655).
inConf((897198, 897655), 897198).
inConf((897198, 897655), 897655).
conf(897246, 897198).
inConf((897246, 897198), 897246).
inConf((897246, 897198), 897198).
conf(1057269, 1057014).
inConf((1057269, 1057014), 1057269).
inConf((1057269, 1057014), 1057014).
conf(936781, 936375).
inConf((936781, 936375), 936781).
inConf((936781, 936375), 936375).
conf(1844955, 288455).
inConf((1844955, 288455), 1844955).
inConf((1844955, 288455), 288455).
conf(897198, 897511).
inConf((897198, 897511), 897198).
inConf((897198, 897511), 897511).
conf(1057014, 1057534).
inConf((1057014, 1057534), 1057014).
inConf((1057014, 1057534), 1057534).
conf(1057014, 2055991).
inConf((1057014, 2055991), 1057014).
inConf((1057014, 2055991), 2055991).
conf(897282, 897198).
inConf((897282, 897198), 897282).
inConf((897282, 897198), 897198).
conf(1057125, 1057014).
inConf((1057125, 1057014), 1057125).
inConf((1057125, 1057014), 1057014).
conf(936637, 936375).
inConf((936637, 936375), 936637).
inConf((936637, 936375), 936375).
conf(131762, 8631).
inConf((131762, 8631), 131762).
inConf((131762, 8631), 8631).
conf(897547, 897198).
inConf((897547, 897198), 897547).
inConf((897547, 897198), 897198).
conf(125888, 834254).
inConf((125888, 834254), 125888).
inConf((125888, 834254), 834254).
conf(1057390, 1057014).
inConf((1057390, 1057014), 1057390).
inConf((1057390, 1057014), 1057014).
conf(936493, 936375).
inConf((936493, 936375), 936493).
inConf((936493, 936375), 936375).
conf(1539976, 46489).
inConf((1539976, 46489), 1539976).
inConf((1539976, 46489), 46489).
conf(897632, 897198).
inConf((897632, 897198), 897632).
inConf((897632, 897198), 897198).
conf(860325, 1539765).
inConf((860325, 1539765), 860325).
inConf((860325, 1539765), 1539765).
conf(897403, 897198).
inConf((897403, 897198), 897403).
inConf((897403, 897198), 897198).
conf(1057246, 1057014).
inConf((1057246, 1057014), 1057246).
inConf((1057246, 1057014), 1057014).
conf(936758, 936375).
inConf((936758, 936375), 936758).
inConf((936758, 936375), 936375).
conf(936375, 325503).
inConf((936375, 325503), 936375).
inConf((936375, 325503), 325503).
conf(897668, 897198).
inConf((897668, 897198), 897668).
inConf((897668, 897198), 897198).
conf(1057014, 1057511).
inConf((1057014, 1057511), 1057014).
inConf((1057014, 1057511), 1057511).
conf(897259, 897198).
inConf((897259, 897198), 897259).
inConf((897259, 897198), 897198).
conf(1057282, 1057014).
inConf((1057282, 1057014), 1057282).
inConf((1057282, 1057014), 1057014).
conf(936614, 936375).
inConf((936614, 936375), 936614).
inConf((936614, 936375), 936375).
conf(936385, 936375).
inConf((936385, 936375), 936385).
inConf((936385, 936375), 936375).
conf(897524, 897198).
inConf((897524, 897198), 897524).
inConf((897524, 897198), 897198).
conf(1057014, 1057367).
inConf((1057014, 1057367), 1057014).
inConf((1057014, 1057367), 1057367).
conf(599485, 1057014).
inConf((599485, 1057014), 599485).
inConf((599485, 1057014), 1057014).
conf(1057138, 1057014).
inConf((1057138, 1057014), 1057138).
inConf((1057138, 1057014), 1057014).
conf(288665, 1789578).
inConf((288665, 1789578), 288665).
inConf((288665, 1789578), 1789578).
conf(936470, 936375).
inConf((936470, 936375), 936470).
inConf((936470, 936375), 936375).
conf(897380, 897198).
inConf((897380, 897198), 897380).
inConf((897380, 897198), 897198).
conf(1057403, 1057014).
inConf((1057403, 1057014), 1057403).
inConf((1057403, 1057014), 1057014).
conf(1363408, 1539849).
inConf((1363408, 1539849), 1363408).
inConf((1363408, 1539849), 1539849).
conf(936735, 936375).
inConf((936735, 936375), 936735).
inConf((936735, 936375), 936375).
conf(936506, 936375).
inConf((936506, 936375), 936506).
inConf((936506, 936375), 936375).
conf(1361104, 1378244).
inConf((1361104, 1378244), 1361104).
inConf((1361104, 1378244), 1378244).
conf(897645, 897198).
inConf((897645, 897198), 897645).
inConf((897645, 897198), 897198).
conf(1057488, 1057014).
inConf((1057488, 1057014), 1057488).
inConf((1057488, 1057014), 1057014).
conf(2040092, 132151).
inConf((2040092, 132151), 2040092).
inConf((2040092, 132151), 132151).
conf(1760433, 46829).
inConf((1760433, 46829), 1760433).
inConf((1760433, 46829), 46829).
conf(1057259, 1057014).
inConf((1057259, 1057014), 1057259).
inConf((1057259, 1057014), 1057014).
conf(897236, 897198).
inConf((897236, 897198), 897236).
inConf((897236, 897198), 897198).
conf(761072, 501569).
inConf((761072, 501569), 761072).
inConf((761072, 501569), 501569).
conf(936591, 936375).
inConf((936591, 936375), 936591).
inConf((936591, 936375), 936375).
conf(2046676, 1057014).
inConf((2046676, 1057014), 2046676).
inConf((2046676, 1057014), 1057014).
conf(1057524, 1057014).
inConf((1057524, 1057014), 1057524).
inConf((1057524, 1057014), 1057014).
conf(897501, 897198).
inConf((897501, 897198), 897501).
inConf((897501, 897198), 897198).
conf(131762, 779461).
inConf((131762, 779461), 131762).
inConf((131762, 779461), 779461).
conf(46489, 1539436).
inConf((46489, 1539436), 46489).
inConf((46489, 1539436), 1539436).
conf(1057115, 1057014).
inConf((1057115, 1057014), 1057115).
inConf((1057115, 1057014), 1057014).
conf(936627, 936375).
inConf((936627, 936375), 936627).
inConf((936627, 936375), 936375).
conf(288665, 1789326).
inConf((288665, 1789326), 288665).
inConf((288665, 1789326), 1789326).
conf(897357, 897198).
inConf((897357, 897198), 897357).
inConf((897357, 897198), 897198).
conf(1057380, 1057014).
inConf((1057380, 1057014), 1057380).
inConf((1057380, 1057014), 1057014).
conf(936483, 936375).
inConf((936483, 936375), 936483).
inConf((936483, 936375), 936375).
conf(1487165, 858749).
inConf((1487165, 858749), 1487165).
inConf((1487165, 858749), 858749).
conf(48761, 73653).
inConf((48761, 73653), 48761).
inConf((48761, 73653), 73653).
conf(897622, 897198).
inConf((897622, 897198), 897622).
inConf((897622, 897198), 897198).
conf(2046568, 1057014).
inConf((2046568, 1057014), 2046568).
inConf((2046568, 1057014), 1057014).
conf(897393, 897198).
inConf((897393, 897198), 897393).
inConf((897393, 897198), 897198).
conf(1057236, 1057014).
inConf((1057236, 1057014), 1057236).
inConf((1057236, 1057014), 1057014).
conf(936748, 936375).
inConf((936748, 936375), 936748).
inConf((936748, 936375), 936375).
conf(2, 51683).
inConf((2, 51683), 2).
inConf((2, 51683), 51683).
conf(2048597, 897198).
inConf((2048597, 897198), 2048597).
inConf((2048597, 897198), 897198).
conf(1370227, 1872981).
inConf((1370227, 1872981), 1370227).
inConf((1370227, 1872981), 1872981).
conf(1057501, 1057014).
inConf((1057501, 1057014), 1057501).
inConf((1057501, 1057014), 1057014).
conf(897478, 897198).
inConf((897478, 897198), 897478).
inConf((897478, 897198), 897198).
conf(897249, 897198).
inConf((897249, 897198), 897249).
inConf((897249, 897198), 897198).
conf(288665, 1788809).
inConf((288665, 1788809), 288665).
inConf((288665, 1788809), 1788809).
conf(1057092, 1057014).
inConf((1057092, 1057014), 1057092).
inConf((1057092, 1057014), 1057014).
conf(936604, 936375).
inConf((936604, 936375), 936604).
inConf((936604, 936375), 936375).
conf(897514, 897198).
inConf((897514, 897198), 897514).
inConf((897514, 897198), 897198).
conf(38954, 79213).
inConf((38954, 79213), 38954).
inConf((38954, 79213), 79213).
conf(286252, 488452).
inConf((286252, 488452), 286252).
inConf((286252, 488452), 488452).
conf(1057357, 1057014).
inConf((1057357, 1057014), 1057357).
inConf((1057357, 1057014), 1057014).
conf(1057128, 1057014).
inConf((1057128, 1057014), 1057128).
inConf((1057128, 1057014), 1057014).
conf(2049492, 936375).
inConf((2049492, 936375), 2049492).
inConf((2049492, 936375), 936375).
conf(936460, 936375).
inConf((936460, 936375), 936460).
inConf((936460, 936375), 936375).
conf(1789442, 46324).
inConf((1789442, 46324), 1789442).
inConf((1789442, 46324), 46324).
conf(43600, 1872122).
inConf((43600, 1872122), 43600).
inConf((43600, 1872122), 1872122).
conf(1374780, 1057014).
inConf((1374780, 1057014), 1374780).
inConf((1374780, 1057014), 1057014).
conf(338730, 759610).
inConf((338730, 759610), 338730).
inConf((338730, 759610), 759610).
conf(897370, 897198).
inConf((897370, 897198), 897370).
inConf((897370, 897198), 897198).
conf(530577, 849871).
inConf((530577, 849871), 530577).
inConf((530577, 849871), 849871).
conf(1057213, 1057014).
inConf((1057213, 1057014), 1057213).
inConf((1057213, 1057014), 1057014).
conf(936725, 936375).
inConf((936725, 936375), 936725).
inConf((936725, 936375), 936375).
conf(897635, 897198).
inConf((897635, 897198), 897635).
inConf((897635, 897198), 897198).
conf(1057478, 1057014).
inConf((1057478, 1057014), 1057478).
inConf((1057478, 1057014), 1057014).
conf(488372, 9756).
inConf((488372, 9756), 488372).
inConf((488372, 9756), 9756).
conf(897226, 897198).
inConf((897226, 897198), 897226).
inConf((897226, 897198), 897198).
conf(1057249, 1057014).
inConf((1057249, 1057014), 1057249).
inConf((1057249, 1057014), 1057014).
conf(1105697, 2007730).
inConf((1105697, 2007730), 1105697).
inConf((1105697, 2007730), 2007730).
conf(936581, 936375).
inConf((936581, 936375), 936581).
inConf((936581, 936375), 936375).
conf(897491, 897198).
inConf((897491, 897198), 897491).
inConf((897491, 897198), 897198).
conf(856402, 369678).
inConf((856402, 369678), 856402).
inConf((856402, 369678), 369678).
conf(1539624, 860325).
inConf((1539624, 860325), 1539624).
inConf((1539624, 860325), 860325).
conf(1057334, 1057014).
inConf((1057334, 1057014), 1057334).
inConf((1057334, 1057014), 1057014).
conf(1057105, 1057014).
inConf((1057105, 1057014), 1057105).
inConf((1057105, 1057014), 1057014).
conf(1844502, 1368695).
inConf((1844502, 1368695), 1844502).
inConf((1844502, 1368695), 1368695).
conf(936437, 936375).
inConf((936437, 936375), 936437).
inConf((936437, 936375), 936375).
conf(1844791, 288455).
inConf((1844791, 288455), 1844791).
inConf((1844791, 288455), 288455).
conf(897347, 897198).
inConf((897347, 897198), 897347).
inConf((897347, 897198), 897198).
conf(1057370, 1057014).
inConf((1057370, 1057014), 1057370).
inConf((1057370, 1057014), 1057014).
conf(345, 1929126).
inConf((345, 1929126), 345).
inConf((345, 1929126), 1929126).
conf(936702, 936375).
inConf((936702, 936375), 936702).
inConf((936702, 936375), 936375).
conf(936473, 936375).
inConf((936473, 936375), 936473).
inConf((936473, 936375), 936375).
conf(1432692, 286629).
inConf((1432692, 286629), 1432692).
inConf((1432692, 286629), 286629).
conf(897612, 897198).
inConf((897612, 897198), 897612).
inConf((897612, 897198), 897198).
conf(2049225, 897198).
inConf((2049225, 897198), 2049225).
inConf((2049225, 897198), 897198).
conf(858749, 1486975).
inConf((858749, 1486975), 858749).
inConf((858749, 1486975), 1486975).
conf(1057226, 1057014).
inConf((1057226, 1057014), 1057226).
inConf((1057226, 1057014), 1057014).
conf(936738, 936375).
inConf((936738, 936375), 936738).
inConf((936738, 936375), 936375).
conf(48761, 1815923).
inConf((48761, 1815923), 48761).
inConf((48761, 1815923), 1815923).
conf(2056680, 936375).
inConf((2056680, 936375), 2056680).
inConf((2056680, 936375), 936375).
conf(1375961, 1057014).
inConf((1375961, 1057014), 1375961).
inConf((1375961, 1057014), 1057014).
conf(897468, 897198).
inConf((897468, 897198), 897468).
inConf((897468, 897198), 897198).
conf(2055497, 897198).
inConf((2055497, 897198), 2055497).
inConf((2055497, 897198), 897198).
conf(1057491, 1057014).
inConf((1057491, 1057014), 1057491).
inConf((1057491, 1057014), 1057014).
conf(897198, 897239).
inConf((897198, 897239), 897198).
inConf((897198, 897239), 897239).
conf(936823, 936375).
inConf((936823, 936375), 936823).
inConf((936823, 936375), 936375).
conf(1057082, 1057014).
inConf((1057082, 1057014), 1057082).
inConf((1057082, 1057014), 1057014).
conf(936594, 936375).
inConf((936594, 936375), 936594).
inConf((936594, 936375), 936375).
conf(897324, 897198).
inConf((897324, 897198), 897324).
inConf((897324, 897198), 897198).
conf(1057347, 1057014).
inConf((1057347, 1057014), 1057347).
inConf((1057347, 1057014), 1057014).
conf(936450, 936375).
inConf((936450, 936375), 936450).
inConf((936450, 936375), 936375).
conf(897589, 897198).
inConf((897589, 897198), 897589).
inConf((897589, 897198), 897198).
conf(897360, 897198).
inConf((897360, 897198), 897360).
inConf((897360, 897198), 897198).
conf(1788794, 46324).
inConf((1788794, 46324), 1788794).
inConf((1788794, 46324), 46324).
conf(1057203, 1057014).
inConf((1057203, 1057014), 1057203).
inConf((1057203, 1057014), 1057014).
conf(1370227, 1872454).
inConf((1370227, 1872454), 1370227).
inConf((1370227, 1872454), 1872454).
conf(936715, 936375).
inConf((936715, 936375), 936715).
inConf((936715, 936375), 936375).
conf(2046220, 936375).
inConf((2046220, 936375), 2046220).
inConf((2046220, 936375), 936375).
conf(350892, 397869).
inConf((350892, 397869), 350892).
inConf((350892, 397869), 397869).
conf(897445, 897198).
inConf((897445, 897198), 897445).
inConf((897445, 897198), 897198).
conf(1057468, 1057014).
inConf((1057468, 1057014), 1057468).
inConf((1057468, 1057014), 1057014).
conf(288665, 1789005).
inConf((288665, 1789005), 288665).
inConf((288665, 1789005), 1789005).
conf(897216, 897198).
inConf((897216, 897198), 897216).
inConf((897216, 897198), 897198).
conf(1057059, 1057014).
inConf((1057059, 1057014), 1057059).
inConf((1057059, 1057014), 1057014).
conf(2049374, 936375).
inConf((2049374, 936375), 2049374).
inConf((2049374, 936375), 936375).
conf(936571, 936375).
inConf((936571, 936375), 936571).
inConf((936571, 936375), 936375).
conf(1431658, 286629).
inConf((1431658, 286629), 1431658).
inConf((1431658, 286629), 286629).
conf(1361104, 1378080).
inConf((1361104, 1378080), 1361104).
inConf((1361104, 1378080), 1378080).
conf(897710, 897198).
inConf((897710, 897198), 897710).
inConf((897710, 897198), 897198).
conf(897481, 897198).
inConf((897481, 897198), 897481).
inConf((897481, 897198), 897198).
conf(2039555, 433119).
inConf((2039555, 433119), 2039555).
inConf((2039555, 433119), 433119).
conf(1057324, 1057014).
inConf((1057324, 1057014), 1057324).
inConf((1057324, 1057014), 1057014).
conf(936836, 936375).
inConf((936836, 936375), 936836).
inConf((936836, 936375), 936375).
conf(1057014, 1057095).
inConf((1057014, 1057095), 1057014).
inConf((1057014, 1057095), 1057095).
conf(9756, 1844629).
inConf((9756, 1844629), 9756).
inConf((9756, 1844629), 1844629).
conf(936427, 936375).
inConf((936427, 936375), 936427).
inConf((936427, 936375), 936375).
conf(1370227, 1872166).
inConf((1370227, 1872166), 1370227).
inConf((1370227, 1872166), 1872166).
conf(1512492, 286447).
inConf((1512492, 286447), 1512492).
inConf((1512492, 286447), 286447).
conf(897337, 897198).
inConf((897337, 897198), 897337).
inConf((897337, 897198), 897198).
conf(2049853, 897198).
inConf((2049853, 897198), 2049853).
inConf((2049853, 897198), 897198).
conf(1057180, 1057014).
inConf((1057180, 1057014), 1057180).
inConf((1057180, 1057014), 1057014).
conf(936692, 936375).
inConf((936692, 936375), 936692).
inConf((936692, 936375), 936375).
conf(897602, 897198).
inConf((897602, 897198), 897602).
inConf((897602, 897198), 897198).
conf(1057445, 1057014).
inConf((1057445, 1057014), 1057445).
inConf((1057445, 1057014), 1057014).
conf(1057216, 1057014).
inConf((1057216, 1057014), 1057216).
inConf((1057216, 1057014), 1057014).
conf(936548, 936375).
inConf((936548, 936375), 936548).
inConf((936548, 936375), 936375).
conf(43600, 1873113).
inConf((43600, 1873113), 43600).
inConf((43600, 1873113), 1873113).
conf(1057481, 1057014).
inConf((1057481, 1057014), 1057481).
inConf((1057481, 1057014), 1057014).
conf(897458, 897198).
inConf((897458, 897198), 897458).
inConf((897458, 897198), 897198).
conf(1361104, 1377648).
inConf((1361104, 1377648), 1361104).
inConf((1361104, 1377648), 1377648).
conf(936813, 936375).
inConf((936813, 936375), 936813).
inConf((936813, 936375), 936375).
conf(1057072, 1057014).
inConf((1057072, 1057014), 1057072).
inConf((1057072, 1057014), 1057014).
conf(1844469, 1368695).
inConf((1844469, 1368695), 1844469).
inConf((1844469, 1368695), 1368695).
conf(936584, 936375).
inConf((936584, 936375), 936584).
inConf((936584, 936375), 936375).
conf(1057014, 1057566).
inConf((1057014, 1057566), 1057014).
inConf((1057014, 1057566), 1057566).
conf(897314, 897198).
inConf((897314, 897198), 897314).
inConf((897314, 897198), 897198).
conf(1371829, 897198).
inConf((1371829, 897198), 1371829).
inConf((1371829, 897198), 897198).
conf(1057337, 1057014).
inConf((1057337, 1057014), 1057337).
inConf((1057337, 1057014), 1057014).
conf(1845661, 288455).
inConf((1845661, 288455), 1845661).
inConf((1845661, 288455), 288455).
conf(130656, 836827).
inConf((130656, 836827), 130656).
inConf((130656, 836827), 836827).
conf(936669, 936375).
inConf((936669, 936375), 936669).
inConf((936669, 936375), 936375).
conf(936440, 936375).
inConf((936440, 936375), 936440).
inConf((936440, 936375), 936375).
conf(489395, 42124).
inConf((489395, 42124), 489395).
inConf((489395, 42124), 42124).
conf(897579, 897198).
inConf((897579, 897198), 897579).
inConf((897579, 897198), 897198).
conf(1375757, 936375).
inConf((1375757, 936375), 1375757).
inConf((1375757, 936375), 936375).
conf(1057193, 1057014).
inConf((1057193, 1057014), 1057193).
inConf((1057193, 1057014), 1057014).
conf(936705, 936375).
inConf((936705, 936375), 936705).
inConf((936705, 936375), 936375).
conf(131762, 840077).
inConf((131762, 840077), 131762).
inConf((131762, 840077), 840077).
conf(1361104, 1378034).
inConf((1361104, 1378034), 1361104).
inConf((1361104, 1378034), 1378034).
conf(897435, 897198).
inConf((897435, 897198), 897435).
inConf((897435, 897198), 897198).
conf(1057458, 1057014).
inConf((1057458, 1057014), 1057458).
inConf((1057458, 1057014), 1057014).
conf(1486569, 858749).
inConf((1486569, 858749), 1486569).
inConf((1486569, 858749), 858749).
conf(542057, 1996490).
inConf((542057, 1996490), 542057).
inConf((542057, 1996490), 1996490).
conf(1057049, 1057014).
inConf((1057049, 1057014), 1057049).
inConf((1057049, 1057014), 1057014).
conf(1845373, 288455).
inConf((1845373, 288455), 1845373).
inConf((1845373, 288455), 288455).
conf(936561, 936375).
inConf((936561, 936375), 936561).
inConf((936561, 936375), 936375).
conf(897700, 897198).
inConf((897700, 897198), 897700).
inConf((897700, 897198), 897198).
conf(897291, 897198).
inConf((897291, 897198), 897291).
inConf((897291, 897198), 897198).
conf(1057314, 1057014).
inConf((1057314, 1057014), 1057314).
inConf((1057314, 1057014), 1057014).
conf(1513120, 286447).
inConf((1513120, 286447), 1513120).
inConf((1513120, 286447), 286447).
conf(1370227, 1872565).
inConf((1370227, 1872565), 1370227).
inConf((1370227, 1872565), 1872565).
conf(936826, 936375).
inConf((936826, 936375), 936826).
inConf((936826, 936375), 936375).
conf(936417, 936375).
inConf((936417, 936375), 936417).
inConf((936417, 936375), 936375).
conf(1373154, 897198).
inConf((1373154, 897198), 1373154).
inConf((1373154, 897198), 897198).
conf(897556, 897198).
inConf((897556, 897198), 897556).
inConf((897556, 897198), 897198).
conf(897198, 897327).
inConf((897198, 897327), 897198).
inConf((897198, 897327), 897327).
conf(1363408, 1540025).
inConf((1363408, 1540025), 1363408).
inConf((1363408, 1540025), 1540025).
conf(1057170, 1057014).
inConf((1057170, 1057014), 1057170).
inConf((1057170, 1057014), 1057014).
conf(936682, 936375).
inConf((936682, 936375), 936682).
inConf((936682, 936375), 936375).
conf(897592, 897198).
inConf((897592, 897198), 897592).
inConf((897592, 897198), 897198).
conf(1057435, 1057014).
inConf((1057435, 1057014), 1057435).
inConf((1057435, 1057014), 1057014).
conf(1057026, 1057014).
inConf((1057026, 1057014), 1057026).
inConf((1057026, 1057014), 1057014).
conf(936538, 936375).
inConf((936538, 936375), 936538).
inConf((936538, 936375), 936375).
conf(897677, 897198).
inConf((897677, 897198), 897677).
inConf((897677, 897198), 897198).
conf(897448, 897198).
inConf((897448, 897198), 897448).
inConf((897448, 897198), 897198).
conf(764825, 597108).
inConf((764825, 597108), 764825).
inConf((764825, 597108), 597108).
conf(1057291, 1057014).
inConf((1057291, 1057014), 1057291).
inConf((1057291, 1057014), 1057014).
conf(936803, 936375).
inConf((936803, 936375), 936803).
inConf((936803, 936375), 936375).
conf(1900137, 107893).
inConf((1900137, 107893), 1900137).
inConf((1900137, 107893), 107893).
conf(1057062, 1057014).
inConf((1057062, 1057014), 1057062).
inConf((1057062, 1057014), 1057014).
conf(1760236, 46829).
inConf((1760236, 46829), 1760236).
inConf((1760236, 46829), 46829).
conf(1873216, 1370227).
inConf((1873216, 1370227), 1873216).
inConf((1873216, 1370227), 1370227).
conf(897713, 897198).
inConf((897713, 897198), 897713).
inConf((897713, 897198), 897198).
conf(936394, 936375).
inConf((936394, 936375), 936394).
inConf((936394, 936375), 936375).
conf(1057556, 1057014).
inConf((1057556, 1057014), 1057556).
inConf((1057556, 1057014), 1057014).
conf(897304, 897198).
inConf((897304, 897198), 897304).
inConf((897304, 897198), 897198).
conf(1057014, 1057327).
inConf((1057014, 1057327), 1057014).
inConf((1057014, 1057327), 1057327).
conf(767928, 1900137).
inConf((767928, 1900137), 767928).
inConf((767928, 1900137), 1900137).
conf(936659, 936375).
inConf((936659, 936375), 936659).
inConf((936659, 936375), 936375).
conf(936430, 936375).
inConf((936430, 936375), 936430).
inConf((936430, 936375), 936375).
conf(897569, 897198).
inConf((897569, 897198), 897569).
inConf((897569, 897198), 897198).
conf(1057412, 1057014).
inConf((1057412, 1057014), 1057412).
inConf((1057412, 1057014), 1057014).
conf(1057014, 1057183).
inConf((1057014, 1057183), 1057014).
inConf((1057014, 1057183), 1057183).
conf(936515, 936375).
inConf((936515, 936375), 936515).
inConf((936515, 936375), 936375).
conf(1487197, 858749).
inConf((1487197, 858749), 1487197).
inConf((1487197, 858749), 858749).
conf(897425, 897198).
inConf((897425, 897198), 897425).
inConf((897425, 897198), 897198).
conf(1057448, 1057014).
inConf((1057448, 1057014), 1057448).
inConf((1057448, 1057014), 1057014).
conf(936780, 936375).
inConf((936780, 936375), 936780).
inConf((936780, 936375), 936375).
conf(1057014, 1057039).
inConf((1057014, 1057039), 1057014).
inConf((1057014, 1057039), 1057039).
conf(936551, 936375).
inConf((936551, 936375), 936551).
inConf((936551, 936375), 936375).
conf(897690, 897198).
inConf((897690, 897198), 897690).
inConf((897690, 897198), 897198).
conf(1057533, 1057014).
inConf((1057533, 1057014), 1057533).
inConf((1057533, 1057014), 1057014).
conf(897281, 897198).
inConf((897281, 897198), 897281).
inConf((897281, 897198), 897198).
conf(1057304, 1057014).
inConf((1057304, 1057014), 1057304).
inConf((1057304, 1057014), 1057014).
conf(68360, 323593, 324041, 58508, 64337, 325074, 1538898, 1538899, 1538900, 936410).
inConf((68360, 323593, 324041, 58508, 64337, 325074, 1538898, 1538899, 1538900, 936410), 68360).
inConf((68360, 323593, 324041, 58508, 64337, 325074, 1538898, 1538899, 1538900, 936410), 323593).
inConf((68360, 323593, 324041, 58508, 64337, 325074, 1538898, 1538899, 1538900, 936410), 324041).
inConf((68360, 323593, 324041, 58508, 64337, 325074, 1538898, 1538899, 1538900, 936410), 58508).
inConf((68360, 323593, 324041, 58508, 64337, 325074, 1538898, 1538899, 1538900, 936410), 64337).
inConf((68360, 323593, 324041, 58508, 64337, 325074, 1538898, 1538899, 1538900, 936410), 325074).
inConf((68360, 323593, 324041, 58508, 64337, 325074, 1538898, 1538899, 1538900, 936410), 1538898).
inConf((68360, 323593, 324041, 58508, 64337, 325074, 1538898, 1538899, 1538900, 936410), 1538899).
inConf((68360, 323593, 324041, 58508, 64337, 325074, 1538898, 1538899, 1538900, 936410), 1538900).
inConf((68360, 323593, 324041, 58508, 64337, 325074, 1538898, 1538899, 1538900, 936410), 936410).
conf(324320, 74627, 72420, 936393, 70188, 1538868, 1538869, 1538870, 324024, 324892).
inConf((324320, 74627, 72420, 936393, 70188, 1538868, 1538869, 1538870, 324024, 324892), 324320).
inConf((324320, 74627, 72420, 936393, 70188, 1538868, 1538869, 1538870, 324024, 324892), 74627).
inConf((324320, 74627, 72420, 936393, 70188, 1538868, 1538869, 1538870, 324024, 324892), 72420).
inConf((324320, 74627, 72420, 936393, 70188, 1538868, 1538869, 1538870, 324024, 324892), 936393).
inConf((324320, 74627, 72420, 936393, 70188, 1538868, 1538869, 1538870, 324024, 324892), 70188).
inConf((324320, 74627, 72420, 936393, 70188, 1538868, 1538869, 1538870, 324024, 324892), 1538868).
inConf((324320, 74627, 72420, 936393, 70188, 1538868, 1538869, 1538870, 324024, 324892), 1538869).
inConf((324320, 74627, 72420, 936393, 70188, 1538868, 1538869, 1538870, 324024, 324892), 1538870).
inConf((324320, 74627, 72420, 936393, 70188, 1538868, 1538869, 1538870, 324024, 324892), 324024).
inConf((324320, 74627, 72420, 936393, 70188, 1538868, 1538869, 1538870, 324024, 324892), 324892).
conf(325382, 323593, 54602, 69738, 58508, 323955, 1539039, 1539037, 1539038, 936479).
inConf((325382, 323593, 54602, 69738, 58508, 323955, 1539039, 1539037, 1539038, 936479), 325382).
inConf((325382, 323593, 54602, 69738, 58508, 323955, 1539039, 1539037, 1539038, 936479), 323593).
inConf((325382, 323593, 54602, 69738, 58508, 323955, 1539039, 1539037, 1539038, 936479), 54602).
inConf((325382, 323593, 54602, 69738, 58508, 323955, 1539039, 1539037, 1539038, 936479), 69738).
inConf((325382, 323593, 54602, 69738, 58508, 323955, 1539039, 1539037, 1539038, 936479), 58508).
inConf((325382, 323593, 54602, 69738, 58508, 323955, 1539039, 1539037, 1539038, 936479), 323955).
inConf((325382, 323593, 54602, 69738, 58508, 323955, 1539039, 1539037, 1539038, 936479), 1539039).
inConf((325382, 323593, 54602, 69738, 58508, 323955, 1539039, 1539037, 1539038, 936479), 1539037).
inConf((325382, 323593, 54602, 69738, 58508, 323955, 1539039, 1539037, 1539038, 936479), 1539038).
inConf((325382, 323593, 54602, 69738, 58508, 323955, 1539039, 1539037, 1539038, 936479), 936479).
conf(325188, 1538845, 61070, 1538846, 323505, 65748, 324789, 65277, 936382, 1538847).
inConf((325188, 1538845, 61070, 1538846, 323505, 65748, 324789, 65277, 936382, 1538847), 325188).
inConf((325188, 1538845, 61070, 1538846, 323505, 65748, 324789, 65277, 936382, 1538847), 1538845).
inConf((325188, 1538845, 61070, 1538846, 323505, 65748, 324789, 65277, 936382, 1538847), 61070).
inConf((325188, 1538845, 61070, 1538846, 323505, 65748, 324789, 65277, 936382, 1538847), 1538846).
inConf((325188, 1538845, 61070, 1538846, 323505, 65748, 324789, 65277, 936382, 1538847), 323505).
inConf((325188, 1538845, 61070, 1538846, 323505, 65748, 324789, 65277, 936382, 1538847), 65748).
inConf((325188, 1538845, 61070, 1538846, 323505, 65748, 324789, 65277, 936382, 1538847), 324789).
inConf((325188, 1538845, 61070, 1538846, 323505, 65748, 324789, 65277, 936382, 1538847), 65277).
inConf((325188, 1538845, 61070, 1538846, 323505, 65748, 324789, 65277, 936382, 1538847), 936382).
inConf((325188, 1538845, 61070, 1538846, 323505, 65748, 324789, 65277, 936382, 1538847), 1538847).
conf(1539017, 1539018, 1539019, 64063, 936467, 324725, 59799, 60220, 325085, 323775).
inConf((1539017, 1539018, 1539019, 64063, 936467, 324725, 59799, 60220, 325085, 323775), 1539017).
inConf((1539017, 1539018, 1539019, 64063, 936467, 324725, 59799, 60220, 325085, 323775), 1539018).
inConf((1539017, 1539018, 1539019, 64063, 936467, 324725, 59799, 60220, 325085, 323775), 1539019).
inConf((1539017, 1539018, 1539019, 64063, 936467, 324725, 59799, 60220, 325085, 323775), 64063).
inConf((1539017, 1539018, 1539019, 64063, 936467, 324725, 59799, 60220, 325085, 323775), 936467).
inConf((1539017, 1539018, 1539019, 64063, 936467, 324725, 59799, 60220, 325085, 323775), 324725).
inConf((1539017, 1539018, 1539019, 64063, 936467, 324725, 59799, 60220, 325085, 323775), 59799).
inConf((1539017, 1539018, 1539019, 64063, 936467, 324725, 59799, 60220, 325085, 323775), 60220).
inConf((1539017, 1539018, 1539019, 64063, 936467, 324725, 59799, 60220, 325085, 323775), 325085).
inConf((1539017, 1539018, 1539019, 64063, 936467, 324725, 59799, 60220, 325085, 323775), 323775).
conf(325282, 324164, 936422, 61767, 1538927, 1538928, 1538929, 68697, 55836, 325343).
inConf((325282, 324164, 936422, 61767, 1538927, 1538928, 1538929, 68697, 55836, 325343), 325282).
inConf((325282, 324164, 936422, 61767, 1538927, 1538928, 1538929, 68697, 55836, 325343), 324164).
inConf((325282, 324164, 936422, 61767, 1538927, 1538928, 1538929, 68697, 55836, 325343), 936422).
inConf((325282, 324164, 936422, 61767, 1538927, 1538928, 1538929, 68697, 55836, 325343), 61767).
inConf((325282, 324164, 936422, 61767, 1538927, 1538928, 1538929, 68697, 55836, 325343), 1538927).
inConf((325282, 324164, 936422, 61767, 1538927, 1538928, 1538929, 68697, 55836, 325343), 1538928).
inConf((325282, 324164, 936422, 61767, 1538927, 1538928, 1538929, 68697, 55836, 325343), 1538929).
inConf((325282, 324164, 936422, 61767, 1538927, 1538928, 1538929, 68697, 55836, 325343), 68697).
inConf((325282, 324164, 936422, 61767, 1538927, 1538928, 1538929, 68697, 55836, 325343), 55836).
inConf((325282, 324164, 936422, 61767, 1538927, 1538928, 1538929, 68697, 55836, 325343), 325343).
conf(1538944, 1538945, 1538946, 324806, 323593, 324041, 58508, 65292, 936429, 64337).
inConf((1538944, 1538945, 1538946, 324806, 323593, 324041, 58508, 65292, 936429, 64337), 1538944).
inConf((1538944, 1538945, 1538946, 324806, 323593, 324041, 58508, 65292, 936429, 64337), 1538945).
inConf((1538944, 1538945, 1538946, 324806, 323593, 324041, 58508, 65292, 936429, 64337), 1538946).
inConf((1538944, 1538945, 1538946, 324806, 323593, 324041, 58508, 65292, 936429, 64337), 324806).
inConf((1538944, 1538945, 1538946, 324806, 323593, 324041, 58508, 65292, 936429, 64337), 323593).
inConf((1538944, 1538945, 1538946, 324806, 323593, 324041, 58508, 65292, 936429, 64337), 324041).
inConf((1538944, 1538945, 1538946, 324806, 323593, 324041, 58508, 65292, 936429, 64337), 58508).
inConf((1538944, 1538945, 1538946, 324806, 323593, 324041, 58508, 65292, 936429, 64337), 65292).
inConf((1538944, 1538945, 1538946, 324806, 323593, 324041, 58508, 65292, 936429, 64337), 936429).
inConf((1538944, 1538945, 1538946, 324806, 323593, 324041, 58508, 65292, 936429, 64337), 64337).
conf(58624, 323688, 1538967, 55601, 324882, 1538966, 936439, 1538968, 60220, 325085).
inConf((58624, 323688, 1538967, 55601, 324882, 1538966, 936439, 1538968, 60220, 325085), 58624).
inConf((58624, 323688, 1538967, 55601, 324882, 1538966, 936439, 1538968, 60220, 325085), 323688).
inConf((58624, 323688, 1538967, 55601, 324882, 1538966, 936439, 1538968, 60220, 325085), 1538967).
inConf((58624, 323688, 1538967, 55601, 324882, 1538966, 936439, 1538968, 60220, 325085), 55601).
inConf((58624, 323688, 1538967, 55601, 324882, 1538966, 936439, 1538968, 60220, 325085), 324882).
inConf((58624, 323688, 1538967, 55601, 324882, 1538966, 936439, 1538968, 60220, 325085), 1538966).
inConf((58624, 323688, 1538967, 55601, 324882, 1538966, 936439, 1538968, 60220, 325085), 936439).
inConf((58624, 323688, 1538967, 55601, 324882, 1538966, 936439, 1538968, 60220, 325085), 1538968).
inConf((58624, 323688, 1538967, 55601, 324882, 1538966, 936439, 1538968, 60220, 325085), 60220).
inConf((58624, 323688, 1538967, 55601, 324882, 1538966, 936439, 1538968, 60220, 325085), 325085).
conf(324320, 324036, 74532, 323851, 70188, 71919, 1539031, 1539032, 1539033, 936476).
inConf((324320, 324036, 74532, 323851, 70188, 71919, 1539031, 1539032, 1539033, 936476), 324320).
inConf((324320, 324036, 74532, 323851, 70188, 71919, 1539031, 1539032, 1539033, 936476), 324036).
inConf((324320, 324036, 74532, 323851, 70188, 71919, 1539031, 1539032, 1539033, 936476), 74532).
inConf((324320, 324036, 74532, 323851, 70188, 71919, 1539031, 1539032, 1539033, 936476), 323851).
inConf((324320, 324036, 74532, 323851, 70188, 71919, 1539031, 1539032, 1539033, 936476), 70188).
inConf((324320, 324036, 74532, 323851, 70188, 71919, 1539031, 1539032, 1539033, 936476), 71919).
inConf((324320, 324036, 74532, 323851, 70188, 71919, 1539031, 1539032, 1539033, 936476), 1539031).
inConf((324320, 324036, 74532, 323851, 70188, 71919, 1539031, 1539032, 1539033, 936476), 1539032).
inConf((324320, 324036, 74532, 323851, 70188, 71919, 1539031, 1539032, 1539033, 936476), 1539033).
inConf((324320, 324036, 74532, 323851, 70188, 71919, 1539031, 1539032, 1539033, 936476), 936476).
conf(70632, 325097, 936428, 324272, 53905, 57523, 324728, 1538941, 1538942, 1538943).
inConf((70632, 325097, 936428, 324272, 53905, 57523, 324728, 1538941, 1538942, 1538943), 70632).
inConf((70632, 325097, 936428, 324272, 53905, 57523, 324728, 1538941, 1538942, 1538943), 325097).
inConf((70632, 325097, 936428, 324272, 53905, 57523, 324728, 1538941, 1538942, 1538943), 936428).
inConf((70632, 325097, 936428, 324272, 53905, 57523, 324728, 1538941, 1538942, 1538943), 324272).
inConf((70632, 325097, 936428, 324272, 53905, 57523, 324728, 1538941, 1538942, 1538943), 53905).
inConf((70632, 325097, 936428, 324272, 53905, 57523, 324728, 1538941, 1538942, 1538943), 57523).
inConf((70632, 325097, 936428, 324272, 53905, 57523, 324728, 1538941, 1538942, 1538943), 324728).
inConf((70632, 325097, 936428, 324272, 53905, 57523, 324728, 1538941, 1538942, 1538943), 1538941).
inConf((70632, 325097, 936428, 324272, 53905, 57523, 324728, 1538941, 1538942, 1538943), 1538942).
inConf((70632, 325097, 936428, 324272, 53905, 57523, 324728, 1538941, 1538942, 1538943), 1538943).
conf(323266, 67266, 325188, 60744, 1538955, 1538956, 1538957, 936434, 65748, 324218).
inConf((323266, 67266, 325188, 60744, 1538955, 1538956, 1538957, 936434, 65748, 324218), 323266).
inConf((323266, 67266, 325188, 60744, 1538955, 1538956, 1538957, 936434, 65748, 324218), 67266).
inConf((323266, 67266, 325188, 60744, 1538955, 1538956, 1538957, 936434, 65748, 324218), 325188).
inConf((323266, 67266, 325188, 60744, 1538955, 1538956, 1538957, 936434, 65748, 324218), 60744).
inConf((323266, 67266, 325188, 60744, 1538955, 1538956, 1538957, 936434, 65748, 324218), 1538955).
inConf((323266, 67266, 325188, 60744, 1538955, 1538956, 1538957, 936434, 65748, 324218), 1538956).
inConf((323266, 67266, 325188, 60744, 1538955, 1538956, 1538957, 936434, 65748, 324218), 1538957).
inConf((323266, 67266, 325188, 60744, 1538955, 1538956, 1538957, 936434, 65748, 324218), 936434).
inConf((323266, 67266, 325188, 60744, 1538955, 1538956, 1538957, 936434, 65748, 324218), 65748).
inConf((323266, 67266, 325188, 60744, 1538955, 1538956, 1538957, 936434, 65748, 324218), 324218).
conf(936389, 323271, 68360, 1538859, 1538860, 1538861, 60752, 55601, 324882, 325074).
inConf((936389, 323271, 68360, 1538859, 1538860, 1538861, 60752, 55601, 324882, 325074), 936389).
inConf((936389, 323271, 68360, 1538859, 1538860, 1538861, 60752, 55601, 324882, 325074), 323271).
inConf((936389, 323271, 68360, 1538859, 1538860, 1538861, 60752, 55601, 324882, 325074), 68360).
inConf((936389, 323271, 68360, 1538859, 1538860, 1538861, 60752, 55601, 324882, 325074), 1538859).
inConf((936389, 323271, 68360, 1538859, 1538860, 1538861, 60752, 55601, 324882, 325074), 1538860).
inConf((936389, 323271, 68360, 1538859, 1538860, 1538861, 60752, 55601, 324882, 325074), 1538861).
inConf((936389, 323271, 68360, 1538859, 1538860, 1538861, 60752, 55601, 324882, 325074), 60752).
inConf((936389, 323271, 68360, 1538859, 1538860, 1538861, 60752, 55601, 324882, 325074), 55601).
inConf((936389, 323271, 68360, 1538859, 1538860, 1538861, 60752, 55601, 324882, 325074), 324882).
inConf((936389, 323271, 68360, 1538859, 1538860, 1538861, 60752, 55601, 324882, 325074), 325074).
conf(1539011, 72420, 1539012, 1539013, 66538, 936464, 324892, 323542, 60220, 325085).
inConf((1539011, 72420, 1539012, 1539013, 66538, 936464, 324892, 323542, 60220, 325085), 1539011).
inConf((1539011, 72420, 1539012, 1539013, 66538, 936464, 324892, 323542, 60220, 325085), 72420).
inConf((1539011, 72420, 1539012, 1539013, 66538, 936464, 324892, 323542, 60220, 325085), 1539012).
inConf((1539011, 72420, 1539012, 1539013, 66538, 936464, 324892, 323542, 60220, 325085), 1539013).
inConf((1539011, 72420, 1539012, 1539013, 66538, 936464, 324892, 323542, 60220, 325085), 66538).
inConf((1539011, 72420, 1539012, 1539013, 66538, 936464, 324892, 323542, 60220, 325085), 936464).
inConf((1539011, 72420, 1539012, 1539013, 66538, 936464, 324892, 323542, 60220, 325085), 324892).
inConf((1539011, 72420, 1539012, 1539013, 66538, 936464, 324892, 323542, 60220, 325085), 323542).
inConf((1539011, 72420, 1539012, 1539013, 66538, 936464, 324892, 323542, 60220, 325085), 60220).
inConf((1539011, 72420, 1539012, 1539013, 66538, 936464, 324892, 323542, 60220, 325085), 325085).
conf(323846, 324725, 324789, 59799, 1538905, 1538906, 1538907, 65277, 936414, 55007).
inConf((323846, 324725, 324789, 59799, 1538905, 1538906, 1538907, 65277, 936414, 55007), 323846).
inConf((323846, 324725, 324789, 59799, 1538905, 1538906, 1538907, 65277, 936414, 55007), 324725).
inConf((323846, 324725, 324789, 59799, 1538905, 1538906, 1538907, 65277, 936414, 55007), 324789).
inConf((323846, 324725, 324789, 59799, 1538905, 1538906, 1538907, 65277, 936414, 55007), 59799).
inConf((323846, 324725, 324789, 59799, 1538905, 1538906, 1538907, 65277, 936414, 55007), 1538905).
inConf((323846, 324725, 324789, 59799, 1538905, 1538906, 1538907, 65277, 936414, 55007), 1538906).
inConf((323846, 324725, 324789, 59799, 1538905, 1538906, 1538907, 65277, 936414, 55007), 1538907).
inConf((323846, 324725, 324789, 59799, 1538905, 1538906, 1538907, 65277, 936414, 55007), 65277).
inConf((323846, 324725, 324789, 59799, 1538905, 1538906, 1538907, 65277, 936414, 55007), 936414).
inConf((323846, 324725, 324789, 59799, 1538905, 1538906, 1538907, 65277, 936414, 55007), 55007).
conf(1539002, 323649, 53538, 324164, 61767, 936461, 323346, 1539001, 66330, 1539003).
inConf((1539002, 323649, 53538, 324164, 61767, 936461, 323346, 1539001, 66330, 1539003), 1539002).
inConf((1539002, 323649, 53538, 324164, 61767, 936461, 323346, 1539001, 66330, 1539003), 323649).
inConf((1539002, 323649, 53538, 324164, 61767, 936461, 323346, 1539001, 66330, 1539003), 53538).
inConf((1539002, 323649, 53538, 324164, 61767, 936461, 323346, 1539001, 66330, 1539003), 324164).
inConf((1539002, 323649, 53538, 324164, 61767, 936461, 323346, 1539001, 66330, 1539003), 61767).
inConf((1539002, 323649, 53538, 324164, 61767, 936461, 323346, 1539001, 66330, 1539003), 936461).
inConf((1539002, 323649, 53538, 324164, 61767, 936461, 323346, 1539001, 66330, 1539003), 323346).
inConf((1539002, 323649, 53538, 324164, 61767, 936461, 323346, 1539001, 66330, 1539003), 1539001).
inConf((1539002, 323649, 53538, 324164, 61767, 936461, 323346, 1539001, 66330, 1539003), 66330).
inConf((1539002, 323649, 53538, 324164, 61767, 936461, 323346, 1539001, 66330, 1539003), 1539003).
conf(1538977, 1538978, 1538979, 70632, 324585, 69738, 323955, 324728, 56891, 936445).
inConf((1538977, 1538978, 1538979, 70632, 324585, 69738, 323955, 324728, 56891, 936445), 1538977).
inConf((1538977, 1538978, 1538979, 70632, 324585, 69738, 323955, 324728, 56891, 936445), 1538978).
inConf((1538977, 1538978, 1538979, 70632, 324585, 69738, 323955, 324728, 56891, 936445), 1538979).
inConf((1538977, 1538978, 1538979, 70632, 324585, 69738, 323955, 324728, 56891, 936445), 70632).
inConf((1538977, 1538978, 1538979, 70632, 324585, 69738, 323955, 324728, 56891, 936445), 324585).
inConf((1538977, 1538978, 1538979, 70632, 324585, 69738, 323955, 324728, 56891, 936445), 69738).
inConf((1538977, 1538978, 1538979, 70632, 324585, 69738, 323955, 324728, 56891, 936445), 323955).
inConf((1538977, 1538978, 1538979, 70632, 324585, 69738, 323955, 324728, 56891, 936445), 324728).
inConf((1538977, 1538978, 1538979, 70632, 324585, 69738, 323955, 324728, 56891, 936445), 56891).
inConf((1538977, 1538978, 1538979, 70632, 324585, 69738, 323955, 324728, 56891, 936445), 936445).
conf(325382, 323271, 936391, 54602, 60752, 1538864, 1538865, 1538866, 54676, 325469).
inConf((325382, 323271, 936391, 54602, 60752, 1538864, 1538865, 1538866, 54676, 325469), 325382).
inConf((325382, 323271, 936391, 54602, 60752, 1538864, 1538865, 1538866, 54676, 325469), 323271).
inConf((325382, 323271, 936391, 54602, 60752, 1538864, 1538865, 1538866, 54676, 325469), 936391).
inConf((325382, 323271, 936391, 54602, 60752, 1538864, 1538865, 1538866, 54676, 325469), 54602).
inConf((325382, 323271, 936391, 54602, 60752, 1538864, 1538865, 1538866, 54676, 325469), 60752).
inConf((325382, 323271, 936391, 54602, 60752, 1538864, 1538865, 1538866, 54676, 325469), 1538864).
inConf((325382, 323271, 936391, 54602, 60752, 1538864, 1538865, 1538866, 54676, 325469), 1538865).
inConf((325382, 323271, 936391, 54602, 60752, 1538864, 1538865, 1538866, 54676, 325469), 1538866).
inConf((325382, 323271, 936391, 54602, 60752, 1538864, 1538865, 1538866, 54676, 325469), 54676).
inConf((325382, 323271, 936391, 54602, 60752, 1538864, 1538865, 1538866, 54676, 325469), 325469).
conf(60192, 936485, 70632, 1539051, 1539052, 1539053, 61070, 323505, 324728, 325052).
inConf((60192, 936485, 70632, 1539051, 1539052, 1539053, 61070, 323505, 324728, 325052), 60192).
inConf((60192, 936485, 70632, 1539051, 1539052, 1539053, 61070, 323505, 324728, 325052), 936485).
inConf((60192, 936485, 70632, 1539051, 1539052, 1539053, 61070, 323505, 324728, 325052), 70632).
inConf((60192, 936485, 70632, 1539051, 1539052, 1539053, 61070, 323505, 324728, 325052), 1539051).
inConf((60192, 936485, 70632, 1539051, 1539052, 1539053, 61070, 323505, 324728, 325052), 1539052).
inConf((60192, 936485, 70632, 1539051, 1539052, 1539053, 61070, 323505, 324728, 325052), 1539053).
inConf((60192, 936485, 70632, 1539051, 1539052, 1539053, 61070, 323505, 324728, 325052), 61070).
inConf((60192, 936485, 70632, 1539051, 1539052, 1539053, 61070, 323505, 324728, 325052), 323505).
inConf((60192, 936485, 70632, 1539051, 1539052, 1539053, 61070, 323505, 324728, 325052), 324728).
inConf((60192, 936485, 70632, 1539051, 1539052, 1539053, 61070, 323505, 324728, 325052), 325052).
conf(324041, 936425, 325357, 56687, 64337, 1538936, 1538934, 1538935, 324408, 57884).
inConf((324041, 936425, 325357, 56687, 64337, 1538936, 1538934, 1538935, 324408, 57884), 324041).
inConf((324041, 936425, 325357, 56687, 64337, 1538936, 1538934, 1538935, 324408, 57884), 936425).
inConf((324041, 936425, 325357, 56687, 64337, 1538936, 1538934, 1538935, 324408, 57884), 325357).
inConf((324041, 936425, 325357, 56687, 64337, 1538936, 1538934, 1538935, 324408, 57884), 56687).
inConf((324041, 936425, 325357, 56687, 64337, 1538936, 1538934, 1538935, 324408, 57884), 64337).
inConf((324041, 936425, 325357, 56687, 64337, 1538936, 1538934, 1538935, 324408, 57884), 1538936).
inConf((324041, 936425, 325357, 56687, 64337, 1538936, 1538934, 1538935, 324408, 57884), 1538934).
inConf((324041, 936425, 325357, 56687, 64337, 1538936, 1538934, 1538935, 324408, 57884), 1538935).
inConf((324041, 936425, 325357, 56687, 64337, 1538936, 1538934, 1538935, 324408, 57884), 324408).
inConf((324041, 936425, 325357, 56687, 64337, 1538936, 1538934, 1538935, 324408, 57884), 57884).
conf(323266, 1538949, 323846, 323271, 60744, 1538950, 1538951, 60752, 936432, 55007).
inConf((323266, 1538949, 323846, 323271, 60744, 1538950, 1538951, 60752, 936432, 55007), 323266).
inConf((323266, 1538949, 323846, 323271, 60744, 1538950, 1538951, 60752, 936432, 55007), 1538949).
inConf((323266, 1538949, 323846, 323271, 60744, 1538950, 1538951, 60752, 936432, 55007), 323846).
inConf((323266, 1538949, 323846, 323271, 60744, 1538950, 1538951, 60752, 936432, 55007), 323271).
inConf((323266, 1538949, 323846, 323271, 60744, 1538950, 1538951, 60752, 936432, 55007), 60744).
inConf((323266, 1538949, 323846, 323271, 60744, 1538950, 1538951, 60752, 936432, 55007), 1538950).
inConf((323266, 1538949, 323846, 323271, 60744, 1538950, 1538951, 60752, 936432, 55007), 1538951).
inConf((323266, 1538949, 323846, 323271, 60744, 1538950, 1538951, 60752, 936432, 55007), 60752).
inConf((323266, 1538949, 323846, 323271, 60744, 1538950, 1538951, 60752, 936432, 55007), 936432).
inConf((323266, 1538949, 323846, 323271, 60744, 1538950, 1538951, 60752, 936432, 55007), 55007).
conf(936480, 1539040, 1539041, 1539042, 55172, 68360, 64063, 325074, 324126, 323775).
inConf((936480, 1539040, 1539041, 1539042, 55172, 68360, 64063, 325074, 324126, 323775), 936480).
inConf((936480, 1539040, 1539041, 1539042, 55172, 68360, 64063, 325074, 324126, 323775), 1539040).
inConf((936480, 1539040, 1539041, 1539042, 55172, 68360, 64063, 325074, 324126, 323775), 1539041).
inConf((936480, 1539040, 1539041, 1539042, 55172, 68360, 64063, 325074, 324126, 323775), 1539042).
inConf((936480, 1539040, 1539041, 1539042, 55172, 68360, 64063, 325074, 324126, 323775), 55172).
inConf((936480, 1539040, 1539041, 1539042, 55172, 68360, 64063, 325074, 324126, 323775), 68360).
inConf((936480, 1539040, 1539041, 1539042, 55172, 68360, 64063, 325074, 324126, 323775), 64063).
inConf((936480, 1539040, 1539041, 1539042, 55172, 68360, 64063, 325074, 324126, 323775), 325074).
inConf((936480, 1539040, 1539041, 1539042, 55172, 68360, 64063, 325074, 324126, 323775), 324126).
inConf((936480, 1539040, 1539041, 1539042, 55172, 68360, 64063, 325074, 324126, 323775), 323775).
conf(324036, 936424, 323533, 71919, 1538931, 54676, 1538932, 1538933, 58425, 325469).
inConf((324036, 936424, 323533, 71919, 1538931, 54676, 1538932, 1538933, 58425, 325469), 324036).
inConf((324036, 936424, 323533, 71919, 1538931, 54676, 1538932, 1538933, 58425, 325469), 936424).
inConf((324036, 936424, 323533, 71919, 1538931, 54676, 1538932, 1538933, 58425, 325469), 323533).
inConf((324036, 936424, 323533, 71919, 1538931, 54676, 1538932, 1538933, 58425, 325469), 71919).
inConf((324036, 936424, 323533, 71919, 1538931, 54676, 1538932, 1538933, 58425, 325469), 1538931).
inConf((324036, 936424, 323533, 71919, 1538931, 54676, 1538932, 1538933, 58425, 325469), 54676).
inConf((324036, 936424, 323533, 71919, 1538931, 54676, 1538932, 1538933, 58425, 325469), 1538932).
inConf((324036, 936424, 323533, 71919, 1538931, 54676, 1538932, 1538933, 58425, 325469), 1538933).
inConf((324036, 936424, 323533, 71919, 1538931, 54676, 1538932, 1538933, 58425, 325469), 58425).
inConf((324036, 936424, 323533, 71919, 1538931, 54676, 1538932, 1538933, 58425, 325469), 325469).
conf(74627, 323271, 324041, 936459, 60752, 64337, 1538996, 1538997, 1538998, 324024).
inConf((74627, 323271, 324041, 936459, 60752, 64337, 1538996, 1538997, 1538998, 324024), 74627).
inConf((74627, 323271, 324041, 936459, 60752, 64337, 1538996, 1538997, 1538998, 324024), 323271).
inConf((74627, 323271, 324041, 936459, 60752, 64337, 1538996, 1538997, 1538998, 324024), 324041).
inConf((74627, 323271, 324041, 936459, 60752, 64337, 1538996, 1538997, 1538998, 324024), 936459).
inConf((74627, 323271, 324041, 936459, 60752, 64337, 1538996, 1538997, 1538998, 324024), 60752).
inConf((74627, 323271, 324041, 936459, 60752, 64337, 1538996, 1538997, 1538998, 324024), 64337).
inConf((74627, 323271, 324041, 936459, 60752, 64337, 1538996, 1538997, 1538998, 324024), 1538996).
inConf((74627, 323271, 324041, 936459, 60752, 64337, 1538996, 1538997, 1538998, 324024), 1538997).
inConf((74627, 323271, 324041, 936459, 60752, 64337, 1538996, 1538997, 1538998, 324024), 1538998).
inConf((74627, 323271, 324041, 936459, 60752, 64337, 1538996, 1538997, 1538998, 324024), 324024).
conf(74627, 936483, 1539047, 1539048, 1539049, 69738, 323955, 325237, 324024, 55803).
inConf((74627, 936483, 1539047, 1539048, 1539049, 69738, 323955, 325237, 324024, 55803), 74627).
inConf((74627, 936483, 1539047, 1539048, 1539049, 69738, 323955, 325237, 324024, 55803), 936483).
inConf((74627, 936483, 1539047, 1539048, 1539049, 69738, 323955, 325237, 324024, 55803), 1539047).
inConf((74627, 936483, 1539047, 1539048, 1539049, 69738, 323955, 325237, 324024, 55803), 1539048).
inConf((74627, 936483, 1539047, 1539048, 1539049, 69738, 323955, 325237, 324024, 55803), 1539049).
inConf((74627, 936483, 1539047, 1539048, 1539049, 69738, 323955, 325237, 324024, 55803), 69738).
inConf((74627, 936483, 1539047, 1539048, 1539049, 69738, 323955, 325237, 324024, 55803), 323955).
inConf((74627, 936483, 1539047, 1539048, 1539049, 69738, 323955, 325237, 324024, 55803), 325237).
inConf((74627, 936483, 1539047, 1539048, 1539049, 69738, 323955, 325237, 324024, 55803), 324024).
inConf((74627, 936483, 1539047, 1539048, 1539049, 69738, 323955, 325237, 324024, 55803), 55803).
conf(936481, 1539043, 1539044, 1539045, 53671, 64063, 323346, 66330, 323869, 323775).
inConf((936481, 1539043, 1539044, 1539045, 53671, 64063, 323346, 66330, 323869, 323775), 936481).
inConf((936481, 1539043, 1539044, 1539045, 53671, 64063, 323346, 66330, 323869, 323775), 1539043).
inConf((936481, 1539043, 1539044, 1539045, 53671, 64063, 323346, 66330, 323869, 323775), 1539044).
inConf((936481, 1539043, 1539044, 1539045, 53671, 64063, 323346, 66330, 323869, 323775), 1539045).
inConf((936481, 1539043, 1539044, 1539045, 53671, 64063, 323346, 66330, 323869, 323775), 53671).
inConf((936481, 1539043, 1539044, 1539045, 53671, 64063, 323346, 66330, 323869, 323775), 64063).
inConf((936481, 1539043, 1539044, 1539045, 53671, 64063, 323346, 66330, 323869, 323775), 323346).
inConf((936481, 1539043, 1539044, 1539045, 53671, 64063, 323346, 66330, 323869, 323775), 66330).
inConf((936481, 1539043, 1539044, 1539045, 53671, 64063, 323346, 66330, 323869, 323775), 323869).
inConf((936481, 1539043, 1539044, 1539045, 53671, 64063, 323346, 66330, 323869, 323775), 323775).
conf(53671, 324041, 1538877, 936397, 64337, 323346, 66330, 323869, 1538878, 1538879).
inConf((53671, 324041, 1538877, 936397, 64337, 323346, 66330, 323869, 1538878, 1538879), 53671).
inConf((53671, 324041, 1538877, 936397, 64337, 323346, 66330, 323869, 1538878, 1538879), 324041).
inConf((53671, 324041, 1538877, 936397, 64337, 323346, 66330, 323869, 1538878, 1538879), 1538877).
inConf((53671, 324041, 1538877, 936397, 64337, 323346, 66330, 323869, 1538878, 1538879), 936397).
inConf((53671, 324041, 1538877, 936397, 64337, 323346, 66330, 323869, 1538878, 1538879), 64337).
inConf((53671, 324041, 1538877, 936397, 64337, 323346, 66330, 323869, 1538878, 1538879), 323346).
inConf((53671, 324041, 1538877, 936397, 64337, 323346, 66330, 323869, 1538878, 1538879), 66330).
inConf((53671, 324041, 1538877, 936397, 64337, 323346, 66330, 323869, 1538878, 1538879), 323869).
inConf((53671, 324041, 1538877, 936397, 64337, 323346, 66330, 323869, 1538878, 1538879), 1538878).
inConf((53671, 324041, 1538877, 936397, 64337, 323346, 66330, 323869, 1538878, 1538879), 1538879).
conf(324036, 936488, 71919, 323280, 1539060, 324725, 1539061, 59799, 1539062, 66207).
inConf((324036, 936488, 71919, 323280, 1539060, 324725, 1539061, 59799, 1539062, 66207), 324036).
inConf((324036, 936488, 71919, 323280, 1539060, 324725, 1539061, 59799, 1539062, 66207), 936488).
inConf((324036, 936488, 71919, 323280, 1539060, 324725, 1539061, 59799, 1539062, 66207), 71919).
inConf((324036, 936488, 71919, 323280, 1539060, 324725, 1539061, 59799, 1539062, 66207), 323280).
inConf((324036, 936488, 71919, 323280, 1539060, 324725, 1539061, 59799, 1539062, 66207), 1539060).
inConf((324036, 936488, 71919, 323280, 1539060, 324725, 1539061, 59799, 1539062, 66207), 324725).
inConf((324036, 936488, 71919, 323280, 1539060, 324725, 1539061, 59799, 1539062, 66207), 1539061).
inConf((324036, 936488, 71919, 323280, 1539060, 324725, 1539061, 59799, 1539062, 66207), 59799).
inConf((324036, 936488, 71919, 323280, 1539060, 324725, 1539061, 59799, 1539062, 66207), 1539062).
inConf((324036, 936488, 71919, 323280, 1539060, 324725, 1539061, 59799, 1539062, 66207), 66207).
conf(1539008, 324806, 65292, 56687, 936463, 54676, 324408, 325469, 1539006, 1539007).
inConf((1539008, 324806, 65292, 56687, 936463, 54676, 324408, 325469, 1539006, 1539007), 1539008).
inConf((1539008, 324806, 65292, 56687, 936463, 54676, 324408, 325469, 1539006, 1539007), 324806).
inConf((1539008, 324806, 65292, 56687, 936463, 54676, 324408, 325469, 1539006, 1539007), 65292).
inConf((1539008, 324806, 65292, 56687, 936463, 54676, 324408, 325469, 1539006, 1539007), 56687).
inConf((1539008, 324806, 65292, 56687, 936463, 54676, 324408, 325469, 1539006, 1539007), 936463).
inConf((1539008, 324806, 65292, 56687, 936463, 54676, 324408, 325469, 1539006, 1539007), 54676).
inConf((1539008, 324806, 65292, 56687, 936463, 54676, 324408, 325469, 1539006, 1539007), 324408).
inConf((1539008, 324806, 65292, 56687, 936463, 54676, 324408, 325469, 1539006, 1539007), 325469).
inConf((1539008, 324806, 65292, 56687, 936463, 54676, 324408, 325469, 1539006, 1539007), 1539006).
inConf((1539008, 324806, 65292, 56687, 936463, 54676, 324408, 325469, 1539006, 1539007), 1539007).
conf(936416, 1538912, 1538913, 325294, 56687, 323280, 54517, 1538911, 324408, 66207).
inConf((936416, 1538912, 1538913, 325294, 56687, 323280, 54517, 1538911, 324408, 66207), 936416).
inConf((936416, 1538912, 1538913, 325294, 56687, 323280, 54517, 1538911, 324408, 66207), 1538912).
inConf((936416, 1538912, 1538913, 325294, 56687, 323280, 54517, 1538911, 324408, 66207), 1538913).
inConf((936416, 1538912, 1538913, 325294, 56687, 323280, 54517, 1538911, 324408, 66207), 325294).
inConf((936416, 1538912, 1538913, 325294, 56687, 323280, 54517, 1538911, 324408, 66207), 56687).
inConf((936416, 1538912, 1538913, 325294, 56687, 323280, 54517, 1538911, 324408, 66207), 323280).
inConf((936416, 1538912, 1538913, 325294, 56687, 323280, 54517, 1538911, 324408, 66207), 54517).
inConf((936416, 1538912, 1538913, 325294, 56687, 323280, 54517, 1538911, 324408, 66207), 1538911).
inConf((936416, 1538912, 1538913, 325294, 56687, 323280, 54517, 1538911, 324408, 66207), 324408).
inConf((936416, 1538912, 1538913, 325294, 56687, 323280, 54517, 1538911, 324408, 66207), 66207).
conf(936385, 1538851, 324164, 1538852, 1538853, 61767, 58472, 323567, 56687, 324408).
inConf((936385, 1538851, 324164, 1538852, 1538853, 61767, 58472, 323567, 56687, 324408), 936385).
inConf((936385, 1538851, 324164, 1538852, 1538853, 61767, 58472, 323567, 56687, 324408), 1538851).
inConf((936385, 1538851, 324164, 1538852, 1538853, 61767, 58472, 323567, 56687, 324408), 324164).
inConf((936385, 1538851, 324164, 1538852, 1538853, 61767, 58472, 323567, 56687, 324408), 1538852).
inConf((936385, 1538851, 324164, 1538852, 1538853, 61767, 58472, 323567, 56687, 324408), 1538853).
inConf((936385, 1538851, 324164, 1538852, 1538853, 61767, 58472, 323567, 56687, 324408), 61767).
inConf((936385, 1538851, 324164, 1538852, 1538853, 61767, 58472, 323567, 56687, 324408), 58472).
inConf((936385, 1538851, 324164, 1538852, 1538853, 61767, 58472, 323567, 56687, 324408), 323567).
inConf((936385, 1538851, 324164, 1538852, 1538853, 61767, 58472, 323567, 56687, 324408), 56687).
inConf((936385, 1538851, 324164, 1538852, 1538853, 61767, 58472, 323567, 56687, 324408), 324408).
conf(936417, 67266, 1538914, 1538915, 1538916, 323593, 58508, 324789, 324218, 65277).
inConf((936417, 67266, 1538914, 1538915, 1538916, 323593, 58508, 324789, 324218, 65277), 936417).
inConf((936417, 67266, 1538914, 1538915, 1538916, 323593, 58508, 324789, 324218, 65277), 67266).
inConf((936417, 67266, 1538914, 1538915, 1538916, 323593, 58508, 324789, 324218, 65277), 1538914).
inConf((936417, 67266, 1538914, 1538915, 1538916, 323593, 58508, 324789, 324218, 65277), 1538915).
inConf((936417, 67266, 1538914, 1538915, 1538916, 323593, 58508, 324789, 324218, 65277), 1538916).
inConf((936417, 67266, 1538914, 1538915, 1538916, 323593, 58508, 324789, 324218, 65277), 323593).
inConf((936417, 67266, 1538914, 1538915, 1538916, 323593, 58508, 324789, 324218, 65277), 58508).
inConf((936417, 67266, 1538914, 1538915, 1538916, 323593, 58508, 324789, 324218, 65277), 324789).
inConf((936417, 67266, 1538914, 1538915, 1538916, 323593, 58508, 324789, 324218, 65277), 324218).
inConf((936417, 67266, 1538914, 1538915, 1538916, 323593, 58508, 324789, 324218, 65277), 65277).
conf(60192, 1538908, 70632, 324041, 64337, 324728, 325052, 1538909, 1538910, 936415).
inConf((60192, 1538908, 70632, 324041, 64337, 324728, 325052, 1538909, 1538910, 936415), 60192).
inConf((60192, 1538908, 70632, 324041, 64337, 324728, 325052, 1538909, 1538910, 936415), 1538908).
inConf((60192, 1538908, 70632, 324041, 64337, 324728, 325052, 1538909, 1538910, 936415), 70632).
inConf((60192, 1538908, 70632, 324041, 64337, 324728, 325052, 1538909, 1538910, 936415), 324041).
inConf((60192, 1538908, 70632, 324041, 64337, 324728, 325052, 1538909, 1538910, 936415), 64337).
inConf((60192, 1538908, 70632, 324041, 64337, 324728, 325052, 1538909, 1538910, 936415), 324728).
inConf((60192, 1538908, 70632, 324041, 64337, 324728, 325052, 1538909, 1538910, 936415), 325052).
inConf((60192, 1538908, 70632, 324041, 64337, 324728, 325052, 1538909, 1538910, 936415), 1538909).
inConf((60192, 1538908, 70632, 324041, 64337, 324728, 325052, 1538909, 1538910, 936415), 1538910).
inConf((60192, 1538908, 70632, 324041, 64337, 324728, 325052, 1538909, 1538910, 936415), 936415).
conf(74627, 61070, 57294, 323505, 1539027, 1539028, 1539029, 324919, 324024, 936474).
inConf((74627, 61070, 57294, 323505, 1539027, 1539028, 1539029, 324919, 324024, 936474), 74627).
inConf((74627, 61070, 57294, 323505, 1539027, 1539028, 1539029, 324919, 324024, 936474), 61070).
inConf((74627, 61070, 57294, 323505, 1539027, 1539028, 1539029, 324919, 324024, 936474), 57294).
inConf((74627, 61070, 57294, 323505, 1539027, 1539028, 1539029, 324919, 324024, 936474), 323505).
inConf((74627, 61070, 57294, 323505, 1539027, 1539028, 1539029, 324919, 324024, 936474), 1539027).
inConf((74627, 61070, 57294, 323505, 1539027, 1539028, 1539029, 324919, 324024, 936474), 1539028).
inConf((74627, 61070, 57294, 323505, 1539027, 1539028, 1539029, 324919, 324024, 936474), 1539029).
inConf((74627, 61070, 57294, 323505, 1539027, 1539028, 1539029, 324919, 324024, 936474), 324919).
inConf((74627, 61070, 57294, 323505, 1539027, 1539028, 1539029, 324919, 324024, 936474), 324024).
inConf((74627, 61070, 57294, 323505, 1539027, 1539028, 1539029, 324919, 324024, 936474), 936474).
conf(323649, 63233, 53538, 1538883, 1538884, 325350, 1538885, 323593, 58508, 936402).
inConf((323649, 63233, 53538, 1538883, 1538884, 325350, 1538885, 323593, 58508, 936402), 323649).
inConf((323649, 63233, 53538, 1538883, 1538884, 325350, 1538885, 323593, 58508, 936402), 63233).
inConf((323649, 63233, 53538, 1538883, 1538884, 325350, 1538885, 323593, 58508, 936402), 53538).
inConf((323649, 63233, 53538, 1538883, 1538884, 325350, 1538885, 323593, 58508, 936402), 1538883).
inConf((323649, 63233, 53538, 1538883, 1538884, 325350, 1538885, 323593, 58508, 936402), 1538884).
inConf((323649, 63233, 53538, 1538883, 1538884, 325350, 1538885, 323593, 58508, 936402), 325350).
inConf((323649, 63233, 53538, 1538883, 1538884, 325350, 1538885, 323593, 58508, 936402), 1538885).
inConf((323649, 63233, 53538, 1538883, 1538884, 325350, 1538885, 323593, 58508, 936402), 323593).
inConf((323649, 63233, 53538, 1538883, 1538884, 325350, 1538885, 323593, 58508, 936402), 58508).
inConf((323649, 63233, 53538, 1538883, 1538884, 325350, 1538885, 323593, 58508, 936402), 936402).
conf(324958, 55172, 936420, 1538922, 1538923, 1538924, 324272, 53905, 72476, 324126).
inConf((324958, 55172, 936420, 1538922, 1538923, 1538924, 324272, 53905, 72476, 324126), 324958).
inConf((324958, 55172, 936420, 1538922, 1538923, 1538924, 324272, 53905, 72476, 324126), 55172).
inConf((324958, 55172, 936420, 1538922, 1538923, 1538924, 324272, 53905, 72476, 324126), 936420).
inConf((324958, 55172, 936420, 1538922, 1538923, 1538924, 324272, 53905, 72476, 324126), 1538922).
inConf((324958, 55172, 936420, 1538922, 1538923, 1538924, 324272, 53905, 72476, 324126), 1538923).
inConf((324958, 55172, 936420, 1538922, 1538923, 1538924, 324272, 53905, 72476, 324126), 1538924).
inConf((324958, 55172, 936420, 1538922, 1538923, 1538924, 324272, 53905, 72476, 324126), 324272).
inConf((324958, 55172, 936420, 1538922, 1538923, 1538924, 324272, 53905, 72476, 324126), 53905).
inConf((324958, 55172, 936420, 1538922, 1538923, 1538924, 324272, 53905, 72476, 324126), 72476).
inConf((324958, 55172, 936420, 1538922, 1538923, 1538924, 324272, 53905, 72476, 324126), 324126).
conf(63233, 67266, 325350, 936486, 325097, 1539056, 1539057, 1539058, 57523, 324218).
inConf((63233, 67266, 325350, 936486, 325097, 1539056, 1539057, 1539058, 57523, 324218), 63233).
inConf((63233, 67266, 325350, 936486, 325097, 1539056, 1539057, 1539058, 57523, 324218), 67266).
inConf((63233, 67266, 325350, 936486, 325097, 1539056, 1539057, 1539058, 57523, 324218), 325350).
inConf((63233, 67266, 325350, 936486, 325097, 1539056, 1539057, 1539058, 57523, 324218), 936486).
inConf((63233, 67266, 325350, 936486, 325097, 1539056, 1539057, 1539058, 57523, 324218), 325097).
inConf((63233, 67266, 325350, 936486, 325097, 1539056, 1539057, 1539058, 57523, 324218), 1539056).
inConf((63233, 67266, 325350, 936486, 325097, 1539056, 1539057, 1539058, 57523, 324218), 1539057).
inConf((63233, 67266, 325350, 936486, 325097, 1539056, 1539057, 1539058, 57523, 324218), 1539058).
inConf((63233, 67266, 325350, 936486, 325097, 1539056, 1539057, 1539058, 57523, 324218), 57523).
inConf((63233, 67266, 325350, 936486, 325097, 1539056, 1539057, 1539058, 57523, 324218), 324218).
conf(325282, 53671, 1538952, 1538953, 1538954, 323533, 936433, 58425, 55836, 323869).
inConf((325282, 53671, 1538952, 1538953, 1538954, 323533, 936433, 58425, 55836, 323869), 325282).
inConf((325282, 53671, 1538952, 1538953, 1538954, 323533, 936433, 58425, 55836, 323869), 53671).
inConf((325282, 53671, 1538952, 1538953, 1538954, 323533, 936433, 58425, 55836, 323869), 1538952).
inConf((325282, 53671, 1538952, 1538953, 1538954, 323533, 936433, 58425, 55836, 323869), 1538953).
inConf((325282, 53671, 1538952, 1538953, 1538954, 323533, 936433, 58425, 55836, 323869), 1538954).
inConf((325282, 53671, 1538952, 1538953, 1538954, 323533, 936433, 58425, 55836, 323869), 323533).
inConf((325282, 53671, 1538952, 1538953, 1538954, 323533, 936433, 58425, 55836, 323869), 936433).
inConf((325282, 53671, 1538952, 1538953, 1538954, 323533, 936433, 58425, 55836, 323869), 58425).
inConf((325282, 53671, 1538952, 1538953, 1538954, 323533, 936433, 58425, 55836, 323869), 55836).
inConf((325282, 53671, 1538952, 1538953, 1538954, 323533, 936433, 58425, 55836, 323869), 323869).
conf(60192, 69738, 936394, 325357, 323955, 1538871, 1538872, 1538873, 325052, 57884).
inConf((60192, 69738, 936394, 325357, 323955, 1538871, 1538872, 1538873, 325052, 57884), 60192).
inConf((60192, 69738, 936394, 325357, 323955, 1538871, 1538872, 1538873, 325052, 57884), 69738).
inConf((60192, 69738, 936394, 325357, 323955, 1538871, 1538872, 1538873, 325052, 57884), 936394).
inConf((60192, 69738, 936394, 325357, 323955, 1538871, 1538872, 1538873, 325052, 57884), 325357).
inConf((60192, 69738, 936394, 325357, 323955, 1538871, 1538872, 1538873, 325052, 57884), 323955).
inConf((60192, 69738, 936394, 325357, 323955, 1538871, 1538872, 1538873, 325052, 57884), 1538871).
inConf((60192, 69738, 936394, 325357, 323955, 1538871, 1538872, 1538873, 325052, 57884), 1538872).
inConf((60192, 69738, 936394, 325357, 323955, 1538871, 1538872, 1538873, 325052, 57884), 1538873).
inConf((60192, 69738, 936394, 325357, 323955, 1538871, 1538872, 1538873, 325052, 57884), 325052).
inConf((60192, 69738, 936394, 325357, 323955, 1538871, 1538872, 1538873, 325052, 57884), 57884).
conf(53671, 1538940, 936427, 68686, 325336, 323869, 1538939, 60220, 325085, 1538938).
inConf((53671, 1538940, 936427, 68686, 325336, 323869, 1538939, 60220, 325085, 1538938), 53671).
inConf((53671, 1538940, 936427, 68686, 325336, 323869, 1538939, 60220, 325085, 1538938), 1538940).
inConf((53671, 1538940, 936427, 68686, 325336, 323869, 1538939, 60220, 325085, 1538938), 936427).
inConf((53671, 1538940, 936427, 68686, 325336, 323869, 1538939, 60220, 325085, 1538938), 68686).
inConf((53671, 1538940, 936427, 68686, 325336, 323869, 1538939, 60220, 325085, 1538938), 325336).
inConf((53671, 1538940, 936427, 68686, 325336, 323869, 1538939, 60220, 325085, 1538938), 323869).
inConf((53671, 1538940, 936427, 68686, 325336, 323869, 1538939, 60220, 325085, 1538938), 1538939).
inConf((53671, 1538940, 936427, 68686, 325336, 323869, 1538939, 60220, 325085, 1538938), 60220).
inConf((53671, 1538940, 936427, 68686, 325336, 323869, 1538939, 60220, 325085, 1538938), 325085).
inConf((53671, 1538940, 936427, 68686, 325336, 323869, 1538939, 60220, 325085, 1538938), 1538938).
conf(64730, 324334, 1538895, 324272, 53905, 1538896, 1538897, 936409, 323514, 63774).
inConf((64730, 324334, 1538895, 324272, 53905, 1538896, 1538897, 936409, 323514, 63774), 64730).
inConf((64730, 324334, 1538895, 324272, 53905, 1538896, 1538897, 936409, 323514, 63774), 324334).
inConf((64730, 324334, 1538895, 324272, 53905, 1538896, 1538897, 936409, 323514, 63774), 1538895).
inConf((64730, 324334, 1538895, 324272, 53905, 1538896, 1538897, 936409, 323514, 63774), 324272).
inConf((64730, 324334, 1538895, 324272, 53905, 1538896, 1538897, 936409, 323514, 63774), 53905).
inConf((64730, 324334, 1538895, 324272, 53905, 1538896, 1538897, 936409, 323514, 63774), 1538896).
inConf((64730, 324334, 1538895, 324272, 53905, 1538896, 1538897, 936409, 323514, 63774), 1538897).
inConf((64730, 324334, 1538895, 324272, 53905, 1538896, 1538897, 936409, 323514, 63774), 936409).
inConf((64730, 324334, 1538895, 324272, 53905, 1538896, 1538897, 936409, 323514, 63774), 323514).
inConf((64730, 324334, 1538895, 324272, 53905, 1538896, 1538897, 936409, 323514, 63774), 63774).
