pref(2055081,897198).
pref(936636,936375).
pref(897198,2043826).
pref(936375,936528).
pref(936375,1371644).
pref(897198,1376239).
pref(1057014,1057546).
pref(897198,897523).
pref(897198,897294).
pref(46489,1539229).
pref(1377484,1361104).
pref(897559,897198).
pref(936375,936770).
pref(897198,897271).
pref(936375,936626).
pref(897198,897536).
pref(1057014,1057379).
pref(936375,936482).
pref(1371104,936375).
pref(897198,897392).
pref(286252,1431353).
pref(1057014,1057415).
pref(936375,936518).
pref(1368695,67378).
pref(1057014,1057271).
pref(897198,496837).
pref(1057014,1057536).
pref(897284,897198).
pref(936375,936639).
pref(936375,936760).
pref(28304,286629).
pref(897526,897198).
pref(1105128,2007730).
pref(897198,2055146).
pref(936375,936472).
pref(1057014,1057225).
pref(936375,936737).
pref(1057014,1057490).
pref(936593,936375).
pref(865045,369678).
pref(42124,1929982).
pref(814012,130656).
pref(1734038,9695).
pref(936375,936714).
pref(936375,936750).
pref(2049502,897198).
pref(936375,936606).
pref(1057014,1057359).
pref(936375,936727).
pref(1057014,1057071).
pref(1760052,46829).
pref(936439,936375).
pref(1789421,46324).
pref(897349,897198).
pref(936375,936704).
pref(936375,936475).
pref(897614,897198).
pref(1361104,1378069).
pref(858749,1486604).
pref(897198,897326).
pref(936375,936681).
pref(897198,897591).
pref(1057014,1057470).
pref(897447,897198).
pref(897198,897218).
pref(936573,936375).
pref(1845385,288455).
pref(897198,897712).
pref(288665,1789272).
pref(897198,897483).
pref(936375,936838).
pref(288665,1789537).
pref(1057014,1057182).
pref(897198,897604).
pref(1539539,46489).
pref(1057014,1057218).
pref(288455,1845542).
pref(936375,936550).
pref(1057014,37048).
pref(936375,936406).
pref(897198,897316).
pref(936375,936671).
pref(1432023,286629).
pref(9756,1844500).
pref(936375,936792).
pref(1788642,46324).
pref(1057014,1057051).
pref(897702,897198).
pref(936375,936419).
pref(1960974,288455).
pref(897198,897414).
pref(936375,936805).
pref(2028695,2007730).
pref(897198,897535).
pref(1789149,46324).
pref(1057014,1057558).
pref(897198,897306).
pref(858749,368001).
pref(897198,897571).
pref(1057014,1057041).
pref(1873195,1370227).
pref(936375,936638).
pref(1432399,286629).
pref(1057014,1057162).
pref(761072,81444).
pref(1844848,288455).
pref(46489,324564).
pref(66865,45848).
pref(897669,897198).
pref(1513089,286447).
pref(936375,936795).
pref(1760228,46829).
pref(1361104,1378533).
pref(936375,936386).
pref(897296,897198).
pref(936375,2051898).
pref(936375,936651).
pref(897198,897381).
pref(1844572,1368695).
pref(936375,936507).
pref(897198,897646).
pref(936375,333300).
pref(897417,897198).
pref(1057014,1057260).
pref(936375,936772).
pref(897198,897682).
pref(416214,866140).
pref(132151,2041032).
pref(1057014,1057116).
pref(860325,1539756).
pref(897394,897198).
pref(936375,936520).
pref(1057014,2054827).
pref(897250,897198).
pref(936375,936376).
pref(1057014,1057538).
pref(1057014,1057394).
pref(1432222,286629).
pref(1539840,1363408).
pref(936375,936726).
pref(936375,936497).
pref(858749,1955507).
pref(897198,897636).
pref(897227,897198).
pref(1057014,1057515).
pref(1057014,1057106).
pref(936375,936618).
pref(1057014,1057371).
pref(897198,897613).
pref(1539517,860325).
pref(1057014,1057227).
pref(936375,936739).
pref(897505,897198).
pref(1057014,1057119).
pref(936716,936375).
pref(936375,936487).
pref(897198,897626).
pref(2,802119).
pref(290572,761125).
pref(897198,897482).
pref(936375,936837).
pref(589604,369898).
pref(936375,936464).
pref(288665,1788489).
pref(1845047,288455).
pref(936375,936729).
pref(1057014,1057482).
pref(1872733,1370227).
pref(1361104,1378588).
pref(371959,39776).
pref(936375,1376576).
pref(897580,897198).
pref(1057014,1057194).
pref(897198,897616).
pref(1057014,1057230).
pref(288665,1788767).
pref(897198,897472).
pref(936375,936418).
pref(759913,2007730).
pref(936375,936683).
pref(1057014,1057207).
pref(936375,936719).
pref(104986,39544).
pref(288665,1789418).
pref(1057014,1057472).
pref(125888,491550).
pref(936375,936431).
pref(897198,897341).
pref(2,1966953).
pref(936375,936696).
pref(858275,132202).
pref(936375,2056903).
pref(936375,1374966).
pref(897198,897462).
pref(1361104,1377243).
pref(936375,936408).
pref(1361104,1378146).
pref(1057014,1057570).
pref(897198,897318).
pref(43295,1512168).
pref(1057014,1057426).
pref(936375,936565).
pref(489378,1368695).
pref(897295,897198).
pref(936650,936375).
pref(66003,9695).
pref(1432267,286629).
pref(936375,936542).
pref(897198,897681).
pref(1057014,2048433).
pref(936375,936398).
pref(897537,897198).
pref(1057014,1057560).
pref(936375,936784).
pref(1057014,1057393).
pref(897262,897198).
pref(936375,936617).
pref(897198,897527).
pref(1057014,1057550).
pref(759751,132202).
pref(897198,897648).
pref(897198,897504).
pref(1057014,1057527).
pref(897198,897540).
pref(897198,897625).
pref(2,833560).
pref(125888,796605).
pref(897396,897198).
pref(897198,1375029).
pref(936375,936751).
pref(897198,897661).
pref(1057014,1057504).
pref(42124,1844576).
pref(1057014,1057360).
pref(1057014,1057131).
pref(2,1934411).
pref(897198,897229).
pref(936375,936764).
pref(858749,1487037).
pref(125888,855).
pref(897198,897494).
pref(936620,936375).
pref(897350,897198).
pref(936375,936476).
pref(897615,897198).
pref(936375,936741).
pref(897198,897471).
pref(936375,936597).
pref(1760732,43864).
pref(1057014,1057121).
pref(936375,936718).
pref(897628,897198).
pref(1540097,1363408).
pref(897198,897219).
pref(897198,897484).
pref(286252,1431445).
pref(936375,936839).
pref(936375,936610).
pref(897198,897340).
pref(936375,936695).
pref(1539064,860325).
pref(1873108,1370227).
pref(858749,26675).
pref(2,1968120).
pref(936375,936731).
pref(897461,897198).
pref(936375,1375639).
pref(1057014,1057340).
pref(1760313,43864).
pref(936375,936443).
pref(897198,897582).
pref(897198,897353).
pref(936375,2044636).
pref(1361104,1973952).
pref(1057014,1057196).
pref(897618,897198).
pref(936375,2043589).
pref(897198,897209).
pref(897198,897703).
pref(936375,936829).
pref(1512979,286447).
pref(897451,897198).
pref(1057014,1057474).
pref(858749,1486585).
pref(936806,936375).
pref(897198,897716).
pref(1986944,132151).
pref(897198,897307).
pref(858749,1975594).
pref(936375,936433).
pref(936375,2043988).
pref(897428,897198).
pref(897693,897198).
pref(936375,936819).
pref(936675,936375).
pref(897585,897198).
pref(936375,936531).
pref(1734120,9695).
pref(897670,897198).
pref(1788875,46324).
pref(936375,936796).
pref(1057014,1057055).
pref(936375,2050502).
pref(897297,897198).
pref(897198,897562).
pref(936375,936508).
pref(1057014,2050120).
pref(897198,897418).
pref(1759977,46829).
pref(897198,897683).
pref(936375,936809).
pref(46489,1972699).
pref(897198,897395).
pref(897198,2051897).
pref(936521,936375).
pref(936375,936786).
pref(1760893,46829).
pref(1512671,286447).
pref(491305,760094).
pref(897516,897198).
pref(897287,897198).
pref(936375,936642).
pref(370278,130656).
pref(897198,897552).
pref(1788577,46324).
pref(936375,936763).
pref(1057014,1057022).
pref(1057014,1057516).
pref(1760461,46829).
pref(936375,936619).
pref(936375,936390).
pref(1057014,1057143).
pref(936375,936655).
pref(38954,454071).
pref(1057014,1057408).
pref(936375,936511).
pref(1759944,46829).
pref(286252,56018).
pref(897198,897241).
pref(936375,936776).
pref(936375,936632).
pref(129532,783097).
pref(761872,97647).
pref(897627,897198).
pref(1539351,860325).
pref(936375,2054889).
pref(2052803,897198).
pref(936375,936753).
pref(897198,897663).
pref(1873022,1370227).
pref(897519,897198).
pref(936375,936465).
pref(897198,897375).
pref(897198,897640).
pref(858749,1486774).
pref(897198,897496).
pref(897198,897352).
pref(1432203,286629).
pref(1057014,1057496).
pref(936375,936599).
pref(897509,897198).
pref(936375,936455).
pref(897594,897198).
pref(936375,936720).
pref(2001064,369678).
pref(936375,936576).
pref(286252,1431447).
pref(936375,936841).
pref(1057014,1057100).
pref(1512726,286447).
pref(897198,897342).
pref(936375,936468).
pref(897198,897607).
pref(936375,936818).
pref(936375,936589).
pref(1978478,286629).
pref(1057014,1057342).
pref(897584,897198).
pref(936375,936710).
pref(897198,897440).
pref(815340,129532).
pref(1991243,132202).
pref(936375,936566).
pref(1845149,288455).
pref(897198,897476).
pref(1991808,132151).
pref(936375,936831).
pref(848453,369699).
pref(131412,766571).
pref(1057014,1057211).
pref(936375,936543).
pref(897453,897198).
pref(433119,2030222).
pref(936375,936808).
pref(1431895,286629).
pref(897718,897198).
pref(324074,860325).
pref(1057014,1057332).
pref(1760277,46829).
pref(936375,936664).
pref(1057014,1057453).
pref(936375,936785).
pref(1539154,860325).
pref(820025,129532).
pref(1057014,1057309).
pref(1057014,1057574).
pref(897198,897322).
pref(1984721,2007730).
pref(1057014,1057165).
pref(129532,782239).
pref(345,127536).
pref(1512827,286447).
pref(897198,897443).
pref(1057014,1057286).
pref(897198,897708).
pref(46489,1539908).
pref(416214,759849).
pref(1057014,1376142).
pref(936375,936510).
pref(1057014,1057443).
pref(858749,1486554).
pref(936775,936375).
pref(897198,897685).
pref(1540083,860325).
pref(936375,936667).
pref(1788566,46324).
pref(38535,123695).
pref(897198,897518).
pref(111258,762686).
pref(1057014,1057132).
pref(936375,936644).
pref(897198,897554).
pref(1057014,1057253).
pref(936375,936765).
pref(2,838269).
pref(1057014,1057518).
pref(589604,814040).
pref(1057014,2051172).
pref(936375,936477).
pref(1057014,1057410).
pref(936375,936513).
pref(1057014,1057266).
pref(936375,936598).
pref(897198,897364).
pref(1845302,288455).
pref(1361104,1377819).
pref(897198,897220).
pref(1057014,818898).
pref(1513314,286447).
pref(858749,1486619).
pref(936375,936611).
pref(897198,897521).
pref(1057014,1057364).
pref(936375,936467).
pref(897377,897198).
pref(936375,936732).
pref(897198,897233).
pref(1057014,1057256).
pref(936588,936375).
pref(936444,936375).
pref(288665,1789323).
pref(48761,446157).
pref(897198,897354).
pref(936375,936480).
pref(1539981,860325).
pref(897198,897210).
pref(1995708,132202).
pref(936375,936830).
pref(897331,897198).
pref(936375,936722).
pref(1760155,46829).
pref(1539427,1363408).
pref(897198,897452).
pref(1057014,1057475).
pref(897717,897198).
pref(1057014,1057102).
pref(936375,936434).
pref(936375,2055244).
pref(897198,897344).
pref(1962144,286629).
pref(936375,936699).
pref(1789308,46324).
pref(936375,936447).
pref(936375,2052633).
pref(936375,2049335).
pref(1432293,286629).
pref(936375,936797).
pref(936375,936568).
pref(897198,897298).
pref(936375,936833).
pref(897198,897563).
pref(897198,897334).
pref(936375,936689).
pref(1057014,1057442).
pref(936375,936545).
pref(897684,897198).
pref(1512430,286447).
pref(936666,936375).
pref(897198,897576).
pref(1057014,1057190).
pref(897198,897432).
pref(1057014,1057540).
pref(936414,936375).
pref(897198,897553).
pref(897409,897198).
pref(1057014,1057023).
pref(897198,897674).
pref(936375,1373228).
pref(936375,936391).
pref(897198,897530).
pref(1873069,1370227).
pref(936375,936512).
pref(1057014,1057036).
pref(897198,897687).
pref(897198,897278).
pref(1057014,1057301).
pref(897543,897198).
pref(46489,1539478).
pref(1057014,1057386).
pref(1057014,1057157).
pref(288665,1789453).
pref(936375,936381).
pref(1057014,1057543).
pref(2050481,897198).
pref(936375,936502).
pref(1760637,43864).
pref(1057014,1376399).
pref(1512652,286447).
pref(897198,897268).
pref(1057014,1057111).
pref(936375,936623).
pref(1431710,286629).
pref(897198,897389).
pref(897654,897198).
pref(16002,46829).
pref(897198,897510).
pref(1057014,1057389).
pref(936375,936721).
pref(936375,936757).
pref(897198,897487).
pref(288665,447274).
pref(490953,897198).
pref(1057014,1372947).
pref(1057014,1057366).
pref(1845690,288455).
pref(936375,936469).
pref(897198,897608).
pref(1432459,286629).
pref(897198,2047271).
pref(1057014,1057487).
pref(1361104,19761).
pref(897198,897235).
pref(936375,936590).
pref(897198,897500).
pref(936375,936446).
pref(897356,897198).
pref(1371871,897198).
pref(936375,936711).
pref(1057014,1370601).
pref(1361104,1377811).
pref(936375,936567).
pref(897198,897477).
pref(1057014,1057500).
pref(936375,936832).
pref(936375,936603).
pref(936688,936375).
pref(936375,936459).
pref(897198,897598).
pref(936375,936724).
pref(897198,897454).
pref(1057014,1057068).
pref(936375,936580).
pref(1761181,46829).
pref(897198,897575).
pref(897198,897346).
pref(936375,936701).
pref(1512586,286447).
pref(1057014,1057454).
pref(897198,897696).
pref(1057014,1057081).
pref(367337,552289).
pref(1057014,1057346).
pref(936375,936678).
pref(5664,131412).
pref(936799,936375).
pref(1512864,286447).
pref(936375,936570).
pref(936375,2044089).
pref(897198,897709).
pref(897198,897300).
pref(1057014,1057323).
pref(897198,1372489).
pref(936426,936375).
pref(288665,1789125).
pref(1057014,1057179).
pref(936375,936691).
pref(132151,759860).
pref(897198,897421).
pref(1057014,1057444).
pref(1057014,1057035).
pref(1760654,46829).
pref(860325,1539410).
pref(759816,447592).
pref(1368695,1844697).
pref(858749,1486676).
pref(1845480,288455).
pref(1377768,1361104).
pref(1057014,1057192).
pref(936375,936524).
pref(1057014,1057277).
pref(897198,897699).
pref(1057014,1057542).
pref(936645,936375).
pref(46489,1539261).
pref(936375,936766).
pref(1374406,897198).
pref(897676,897198).
pref(1057014,2045310).
pref(1977958,46324).
pref(46489,1539503).
pref(1057014,1057411).
pref(1539521,860325).
pref(1844483,42124).
pref(897198,897653).
pref(897198,897424).
pref(897198,897689).
pref(288665,1788840).
pref(936375,936635).
pref(936375,936491).
pref(1845074,288455).
pref(416214,852533).
pref(1539870,1363408).
pref(868097,369678).
pref(1057014,2056640).
pref(936375,936612).
pref(936648,936375).
pref(131412,771492).
pref(1432638,286629).
pref(897198,897378).
pref(1057014,1057401).
pref(936504,936375).
pref(288665,1788529).
pref(1947828,1370227).
pref(897198,897643).
pref(491305,2012494).
pref(897234,897198).
pref(936375,2048983).
pref(897198,897270).
pref(2048883,897198).
pref(1057014,1057113).
pref(897355,897198).
pref(936481,936375).
pref(897198,897391).
pref(936375,1374895).
pref(1872076,1370227).
pref(433119,875550).
pref(897198,897368).
pref(936375,936494).
pref(897198,897633).
pref(759964,369699).
pref(897198,897489).
pref(491305,849881).
pref(897345,897198).
pref(1057014,1057368).
pref(936375,936471).
pref(936375,2050262).
pref(897466,897198).
pref(1057014,1057489).
pref(897237,897198).
pref(416214,1987129).
pref(869970,447592).
pref(1057014,1057345).
pref(936375,2045459).
pref(897198,897587).
pref(897358,897198).
pref(936375,936713).
pref(288665,1789412).
pref(1057014,1057466).
pref(2024085,132202).
pref(1845682,288455).
pref(936375,936461).
pref(936375,936546).
pref(897456,897198).
pref(936375,936811).
pref(936375,936582).
pref(936438,936375).
pref(897198,897348).
pref(1057014,1057191).
pref(897198,897433).
pref(897198,897469).
pref(1057014,1057312).
pref(897198,1375776).
pref(897325,897198).
pref(2,834163).
pref(837741,130656).
pref(936375,936680).
pref(897198,897590).
pref(1057014,1057204).
pref(1539650,1363408).
pref(936375,936536).
pref(1057014,1057289).
pref(936375,936801).
pref(1057014,1057060).
pref(897711,897198).
pref(936375,936657).
pref(936375,936428).
pref(1057014,1057181).
pref(1057014,2049222).
pref(1432683,286629).
pref(897198,897423).
pref(1057014,1057037).
pref(936375,936549).
pref(897198,897688).
pref(936375,936405).
pref(1378143,1361104).
pref(2050240,897198).
pref(897198,897315).
pref(936670,936375).
pref(897198,897436).
pref(1057014,1057279).
pref(1057014,1057050).
pref(897701,897198).
pref(936375,936382).
pref(897198,897292).
pref(9756,1951696).
pref(936375,936647).
pref(125888,811296).
pref(936375,936624).
pref(936395,936375).
pref(1057014,1057557).
pref(1057014,1057148).
pref(288665,30947).
pref(936375,936516).
pref(897198,897655).
pref(897198,897246).
pref(1057014,2055991).
pref(936375,936637).
pref(897547,897198).
pref(125888,834254).
pref(897198,897632).
pref(1057014,1057246).
pref(936375,325503).
pref(897259,897198).
pref(936614,936375).
pref(936375,936385).
pref(936470,936375).
pref(897380,897198).
pref(936375,936735).
pref(936375,936506).
pref(132151,2040092).
pref(1057014,1057259).
pref(761072,501569).
pref(1057014,2046676).
pref(897198,897501).
pref(131762,779461).
pref(288665,1789326).
pref(936375,936483).
pref(858749,1487165).
pref(897198,897622).
pref(897198,897393).
pref(288665,1788809).
pref(936375,936604).
pref(1057014,1057128).
pref(936375,936460).
pref(1872122,43600).
pref(530577,849871).
pref(936375,936725).
pref(897198,897635).
pref(9756,488372).
pref(936375,936581).
pref(1057014,1057334).
pref(936375,936437).
pref(897198,897347).
pref(936375,936702).
pref(1432692,286629).
pref(897198,897612).
pref(936738,936375).
pref(897198,897468).
pref(897239,897198).
pref(936823,936375).
pref(936375,936594).
pref(897324,897198).
pref(1057014,1057347).
pref(897198,897360).
pref(936375,936715).
pref(1057014,1057468).
pref(288665,1789005).
pref(936375,2049374).
pref(1431658,286629).
pref(1361104,1378080).
pref(1512492,286447).
pref(1057014,1057180).
pref(897198,897458).
pref(1844469,1368695).
pref(936375,936584).
pref(1057014,1057566).
pref(897198,897314).
pref(897198,1371829).
pref(1057014,1057337).
pref(836827,130656).
pref(936375,1375757).
pref(131762,840077).
pref(1361104,1378034).
pref(897198,897435).
pref(858749,1486569).
pref(1057014,1057049).
pref(1845373,288455).
pref(897198,897700).
pref(1872565,1370227).
pref(936417,936375).
pref(897198,897327).
pref(897592,897198).
pref(897198,897677).
pref(897198,897448).
pref(1057014,1057062).
pref(936375,936394).
pref(936375,936430).
pref(858749,1487197).
pref(1057014,1057533).
pref(1057014,1057304).
pref(68360,323593).
pref(68360,324041).
pref(58508,64337).
pref(58508,1538900).
pref(1538898,323593).
pref(1538898,324041).
pref(1538899,68360).
pref(1538899,323593).
pref(1538899,324041).
pref(1538899,64337).
pref(1538899,325074).
pref(1538899,1538900).
pref(72420,324320).
pref(72420,1538868).
pref(72420,1538870).
pref(70188,324320).
pref(70188,1538870).
pref(324024,324320).
pref(324024,1538868).
pref(324024,1538870).
pref(324892,324320).
pref(324892,936393).
pref(324892,1538870).
pref(69738,323593).
pref(69738,54602).
pref(69738,323955).
pref(69738,1539039).
pref(58508,936479).
pref(1539037,323593).
pref(1539037,54602).
pref(1539037,936479).
pref(1539038,323593).
pref(1539038,54602).
pref(1539038,323955).
pref(1539038,1539039).
pref(1538845,61070).
pref(1538845,936382).
pref(1538846,61070).
pref(1538846,936382).
pref(323505,61070).
pref(323505,65277).
pref(323505,936382).
pref(65748,61070).
pref(65748,1538846).
pref(65748,936382).
pref(1538847,1538845).
pref(1538847,61070).
pref(1538847,1538846).
pref(1538847,323505).
pref(1538847,324789).
pref(1538847,65277).
pref(1538847,936382).
pref(1539018,59799).
pref(1539018,325085).
pref(64063,59799).
pref(64063,325085).
pref(936467,59799).
pref(324725,1539019).
pref(324725,936467).
pref(324725,59799).
pref(324725,325085).
pref(324725,323775).
pref(323775,936467).
pref(323775,59799).
pref(324164,325282).
pref(324164,936422).
pref(324164,61767).
pref(324164,1538927).
pref(324164,1538929).
pref(324164,68697).
pref(324164,55836).
pref(324164,325343).
pref(936422,1538927).
pref(61767,1538927).
pref(1538928,325282).
pref(1538928,936422).
pref(1538928,61767).
pref(1538928,1538927).
pref(1538928,325343).
pref(1538929,325282).
pref(1538929,1538927).
pref(1538929,68697).
pref(1538929,55836).
pref(1538929,325343).
pref(1538944,64337).
pref(1538945,323593).
pref(1538945,324041).
pref(324806,64337).
pref(58508,1538944).
pref(58508,1538946).
pref(936429,1538944).
pref(936429,1538946).
pref(936429,64337).
pref(323688,1538968).
pref(323688,325085).
pref(1538967,58624).
pref(1538967,55601).
pref(1538967,324882).
pref(1538967,1538966).
pref(1538967,1538968).
pref(1538967,60220).
pref(1538967,325085).
pref(55601,324882).
pref(55601,1538966).
pref(936439,58624).
pref(936439,55601).
pref(936439,324882).
pref(936439,1538966).
pref(936439,1538968).
pref(936439,60220).
pref(936439,325085).
pref(324036,324320).
pref(324036,71919).
pref(74532,324320).
pref(74532,71919).
pref(74532,936476).
pref(70188,71919).
pref(1539031,324320).
pref(1539031,71919).
pref(1539032,324320).
pref(1539032,71919).
pref(1539033,324320).
pref(1539033,324036).
pref(1539033,74532).
pref(1539033,323851).
pref(1539033,71919).
pref(1539033,1539031).
pref(1539033,936476).
pref(70632,936428).
pref(70632,53905).
pref(70632,1538943).
pref(57523,936428).
pref(57523,53905).
pref(57523,1538941).
pref(57523,1538943).
pref(324728,70632).
pref(324728,936428).
pref(324728,53905).
pref(324728,1538941).
pref(324728,1538943).
pref(1538941,53905).
pref(323266,67266).
pref(60744,323266).
pref(60744,67266).
pref(60744,324218).
pref(1538955,323266).
pref(1538955,67266).
pref(1538955,324218).
pref(1538956,323266).
pref(1538956,67266).
pref(1538956,1538957).
pref(1538956,324218).
pref(65748,323266).
pref(65748,67266).
pref(65748,1538957).
pref(65748,324218).
pref(323271,68360).
pref(323271,1538860).
pref(323271,60752).
pref(323271,55601).
pref(323271,324882).
pref(323271,325074).
pref(68360,60752).
pref(68360,324882).
pref(1538859,68360).
pref(1538859,60752).
pref(1538859,55601).
pref(1538859,324882).
pref(1538859,325074).
pref(1538860,60752).
pref(1538860,324882).
pref(1538861,60752).
pref(1538861,324882).
pref(55601,60752).
pref(325074,60752).
pref(325074,324882).
pref(1539011,66538).
pref(1539011,325085).
pref(72420,1539012).
pref(72420,66538).
pref(72420,936464).
pref(1539013,1539012).
pref(1539013,66538).
pref(936464,1539012).
pref(936464,66538).
pref(324892,1539012).
pref(324892,66538).
pref(324892,936464).
pref(324892,325085).
pref(323542,1539012).
pref(323542,1539013).
pref(323542,66538).
pref(323542,936464).
pref(323542,60220).
pref(323846,59799).
pref(324725,323846).
pref(324725,324789).
pref(324725,1538906).
pref(324725,65277).
pref(1538905,324789).
pref(1538905,59799).
pref(1538905,65277).
pref(1538906,324789).
pref(1538906,59799).
pref(1538906,65277).
pref(936414,323846).
pref(936414,324789).
pref(936414,59799).
pref(936414,1538905).
pref(936414,1538906).
pref(936414,65277).
pref(1539002,936461).
pref(1539002,66330).
pref(53538,66330).
pref(324164,1539002).
pref(324164,323649).
pref(324164,53538).
pref(324164,936461).
pref(324164,1539001).
pref(324164,66330).
pref(323346,1539002).
pref(323346,323649).
pref(323346,53538).
pref(323346,61767).
pref(323346,936461).
pref(323346,1539001).
pref(323346,66330).
pref(1539001,936461).
pref(1539001,66330).
pref(1539003,323649).
pref(1539003,61767).
pref(1538978,324585).
pref(1538978,323955).
pref(1538979,1538977).
pref(1538979,324585).
pref(1538979,323955).
pref(1538979,56891).
pref(70632,1538977).
pref(70632,324585).
pref(70632,323955).
pref(70632,56891).
pref(69738,1538977).
pref(69738,324585).
pref(69738,56891).
pref(324728,1538977).
pref(324728,1538979).
pref(324728,324585).
pref(324728,69738).
pref(324728,323955).
pref(324728,56891).
pref(324728,936445).
pref(56891,324585).
pref(936445,1538977).
pref(936445,324585).
pref(936445,323955).
pref(936445,56891).
pref(325382,60752).
pref(323271,936391).
pref(323271,54602).
pref(323271,1538864).
pref(323271,1538865).
pref(323271,1538866).
pref(323271,54676).
pref(1538866,936391).
pref(1538866,54602).
pref(1538866,60752).
pref(1538866,1538864).
pref(1538866,1538865).
pref(54676,936391).
pref(54676,60752).
pref(325469,936391).
pref(325469,60752).
pref(325469,54676).
pref(936485,61070).
pref(70632,60192).
pref(70632,1539051).
pref(70632,1539052).
pref(70632,61070).
pref(70632,323505).
pref(1539052,60192).
pref(1539052,61070).
pref(1539053,60192).
pref(1539053,1539051).
pref(1539053,61070).
pref(323505,60192).
pref(323505,1539051).
pref(324728,60192).
pref(324728,936485).
pref(324728,1539051).
pref(324728,1539052).
pref(324728,1539053).
pref(324728,61070).
pref(324728,323505).
pref(325052,60192).
pref(325052,936485).
pref(325052,1539051).
pref(325052,1539052).
pref(325052,61070).
pref(56687,64337).
pref(56687,1538936).
pref(1538934,64337).
pref(1538934,1538936).
pref(1538935,324041).
pref(1538935,325357).
pref(57884,64337).
pref(57884,1538936).
pref(323846,60752).
pref(323271,1538949).
pref(323271,1538951).
pref(323271,55007).
pref(60744,60752).
pref(1538950,60752).
pref(936432,323266).
pref(936432,323846).
pref(936432,1538950).
pref(936432,60752).
pref(1539040,1539041).
pref(1539040,1539042).
pref(55172,1539041).
pref(55172,1539042).
pref(55172,325074).
pref(55172,323775).
pref(68360,936480).
pref(68360,1539041).
pref(68360,1539042).
pref(68360,324126).
pref(64063,1539041).
pref(64063,1539042).
pref(325074,1539041).
pref(325074,1539042).
pref(323775,1539041).
pref(323775,1539042).
pref(323775,325074).
pref(324036,323533).
pref(324036,1538933).
pref(1538931,323533).
pref(1538931,71919).
pref(1538931,1538933).
pref(54676,323533).
pref(54676,71919).
pref(54676,1538933).
pref(1538932,323533).
pref(1538932,71919).
pref(1538932,1538933).
pref(58425,323533).
pref(58425,71919).
pref(58425,1538933).
pref(325469,324036).
pref(325469,323533).
pref(325469,71919).
pref(325469,1538933).
pref(323271,74627).
pref(323271,324041).
pref(323271,936459).
pref(323271,64337).
pref(323271,1538997).
pref(323271,1538998).
pref(936459,60752).
pref(64337,60752).
pref(1538996,60752).
pref(1538996,64337).
pref(1538996,1538997).
pref(1538997,60752).
pref(324024,324041).
pref(324024,936459).
pref(324024,60752).
pref(324024,64337).
pref(324024,1538997).
pref(1539048,936483).
pref(1539048,325237).
pref(1539048,324024).
pref(1539049,936483).
pref(1539049,323955).
pref(1539049,325237).
pref(69738,936483).
pref(69738,325237).
pref(324024,936483).
pref(324024,325237).
pref(55803,936483).
pref(55803,325237).
pref(936481,1539044).
pref(936481,1539045).
pref(936481,53671).
pref(936481,66330).
pref(936481,323869).
pref(936481,323775).
pref(1539043,323869).
pref(1539044,1539045).
pref(1539044,66330).
pref(53671,1539044).
pref(53671,1539045).
pref(53671,66330).
pref(53671,323869).
pref(323346,1539044).
pref(323346,1539045).
pref(323346,53671).
pref(323346,323869).
pref(323346,323775).
pref(323775,1539045).
pref(323775,66330).
pref(323775,323869).
pref(53671,64337).
pref(53671,1538879).
pref(1538877,66330).
pref(936397,64337).
pref(936397,66330).
pref(936397,323869).
pref(936397,1538879).
pref(323346,324041).
pref(323346,1538877).
pref(323346,64337).
pref(323346,1538878).
pref(323346,1538879).
pref(1538879,66330).
pref(324036,59799).
pref(324036,1539062).
pref(324036,66207).
pref(936488,324036).
pref(936488,71919).
pref(936488,1539061).
pref(936488,59799).
pref(936488,1539062).
pref(936488,66207).
pref(323280,71919).
pref(323280,1539061).
pref(323280,59799).
pref(1539060,71919).
pref(1539060,1539061).
pref(1539060,59799).
pref(324725,324036).
pref(324725,71919).
pref(324725,1539060).
pref(324725,1539061).
pref(324725,1539062).
pref(324725,66207).
pref(1539061,71919).
pref(1539061,59799).
pref(1539008,65292).
pref(1539008,1539006).
pref(324806,54676).
pref(325469,1539006).
pref(1539007,1539008).
pref(1539007,324806).
pref(1539007,65292).
pref(1539007,56687).
pref(1539007,54676).
pref(1539007,325469).
pref(1539007,1539006).
pref(936416,66207).
pref(1538911,66207).
pref(1538851,936385).
pref(1538851,61767).
pref(1538851,58472).
pref(1538851,323567).
pref(1538851,56687).
pref(324164,936385).
pref(324164,58472).
pref(324164,323567).
pref(324164,56687).
pref(1538852,936385).
pref(1538852,58472).
pref(1538852,323567).
pref(1538853,936385).
pref(1538853,61767).
pref(1538853,58472).
pref(1538853,323567).
pref(1538853,56687).
pref(323567,58472).
pref(56687,58472).
pref(936417,67266).
pref(936417,1538914).
pref(936417,1538916).
pref(936417,323593).
pref(936417,324789).
pref(936417,324218).
pref(936417,65277).
pref(1538914,67266).
pref(1538915,67266).
pref(1538915,1538914).
pref(1538915,1538916).
pref(1538915,323593).
pref(1538915,324789).
pref(1538915,324218).
pref(1538915,65277).
pref(1538916,67266).
pref(1538916,1538914).
pref(1538916,324218).
pref(1538916,65277).
pref(58508,67266).
pref(58508,1538914).
pref(58508,324218).
pref(1538908,60192).
pref(1538908,64337).
pref(1538908,1538909).
pref(1538908,1538910).
pref(70632,324041).
pref(70632,64337).
pref(70632,1538909).
pref(70632,1538910).
pref(64337,60192).
pref(324728,1538908).
pref(324728,324041).
pref(324728,64337).
pref(324728,1538909).
pref(324728,1538910).
pref(324728,936415).
pref(325052,1538908).
pref(325052,64337).
pref(325052,1538909).
pref(325052,1538910).
pref(325052,936415).
pref(57294,61070).
pref(1539027,61070).
pref(1539028,61070).
pref(1539028,323505).
pref(1539028,1539027).
pref(1539028,324919).
pref(1539029,74627).
pref(1539029,61070).
pref(324919,61070).
pref(324024,61070).
pref(324024,323505).
pref(324024,1539027).
pref(936474,61070).
pref(63233,323649).
pref(63233,1538884).
pref(53538,323593).
pref(1538883,323593).
pref(1538885,323593).
pref(58508,323649).
pref(58508,1538884).
pref(936402,53538).
pref(936402,1538883).
pref(936402,323593).
pref(324958,324126).
pref(55172,1538922).
pref(55172,53905).
pref(936420,1538922).
pref(936420,53905).
pref(1538923,1538922).
pref(1538923,53905).
pref(1538924,1538922).
pref(1538924,53905).
pref(1538924,324126).
pref(72476,324126).
pref(63233,67266).
pref(63233,1539057).
pref(63233,324218).
pref(936486,67266).
pref(936486,1539057).
pref(936486,324218).
pref(1539056,67266).
pref(1539056,1539057).
pref(1539056,1539058).
pref(1539056,324218).
pref(57523,67266).
pref(57523,1539057).
pref(57523,324218).
pref(53671,325282).
pref(53671,1538954).
pref(53671,323533).
pref(53671,936433).
pref(1538952,325282).
pref(1538952,1538954).
pref(1538952,323533).
pref(1538952,936433).
pref(1538952,55836).
pref(1538952,323869).
pref(1538953,325282).
pref(1538953,323533).
pref(1538953,323869).
pref(1538954,325282).
pref(1538954,323533).
pref(58425,325282).
pref(58425,323869).
pref(323869,325282).
pref(323869,323533).
pref(69738,60192).
pref(69738,936394).
pref(69738,325357).
pref(69738,1538872).
pref(936394,60192).
pref(1538871,60192).
pref(1538871,936394).
pref(1538871,57884).
pref(1538872,60192).
pref(1538872,325357).
pref(1538873,60192).
pref(1538873,325357).
pref(1538873,323955).
pref(325052,936394).
pref(325052,57884).
pref(57884,60192).
pref(57884,936394).
pref(53671,1538940).
pref(936427,323869).
pref(936427,325085).
pref(325336,1538940).
pref(325336,68686).
pref(325336,323869).
pref(325336,60220).
pref(1538938,325085).
pref(324334,1538896).
pref(1538895,324334).
pref(1538895,53905).
pref(1538895,1538896).
pref(324272,1538896).
pref(53905,1538896).
pref(1538897,64730).
pref(1538897,53905).
pref(1538897,1538896).
pref(1538897,323514).
pref(936409,324334).
pref(936409,1538896).
pref(63774,1538896).
pref(1057014,1057534).
pref(1538869,72420).
pref(324892,72420).
pref(1539011,72420).
pref(1057014,1057353).
pref(325382,1538864).
pref(54676,1538864).
pref(325469,1538864).
pref(1057014,1057528).
pref(897198,897459).
pref(1057014,1057026).
pref(936422,68697).
pref(61767,68697).
pref(1538928,68697).
pref(897198,897619).
pref(1057014,1057226).
pref(897198,897520).
pref(936375,936384).
pref(1057014,1057413).
pref(325382,1539039).
pref(58508,1539039).
pref(1539037,1539039).
pref(936479,1539039).
pref(1057014,1057228).
pref(1057014,1057402).
pref(2,833266).
pref(530577,2021961).
pref(1539040,324126).
pref(55172,324126).
pref(64063,324126).
pref(325074,324126).
pref(323775,324126).
pref(936420,324126).
pref(1538922,324126).
pref(1538923,324126).
pref(324272,324126).
pref(53905,324126).
pref(936375,936677).
pref(1057014,1057336).
pref(897198,897662).
pref(1057014,1057414).
pref(1057014,1057529).
pref(897198,897211).
pref(1057014,1057078).
pref(1057014,1057503).
pref(936375,936820).
pref(1057014,1057056).
pref(286629,1432485).
pref(1057014,1057524).
pref(897198,897513).
pref(897198,897706).
pref(58508,1538916).
pref(936375,2056369).
pref(1057014,599485).
pref(1974890,764825).
pref(597108,764825).
pref(9756,1844493).
pref(1057014,1057501).
pref(1057014,1057561).
pref(63233,1539056).
pref(325350,1539056).
pref(57523,1539056).
pref(936375,936587).
pref(1057014,1057287).
pref(897198,897507).
pref(1539971,1363408).
pref(1539082,1363408).
pref(1539768,1363408).
pref(1539987,1363408).
pref(1539547,1363408).
pref(1539406,1363408).
pref(1539252,1363408).
pref(1539605,1363408).
pref(1539683,1363408).
pref(1539849,1363408).
pref(1057014,2048142).
pref(1057014,863353).
pref(325085,66538).
pref(897198,897603).
pref(897198,897651).
pref(1057014,1057243).
pref(1057014,1057105).
pref(1057014,1057174).
pref(325188,1538846).
pref(1539048,1539049).
pref(55803,1539049).
pref(897198,897719).
pref(1057014,1057091).
pref(842512,589604).
pref(835736,589604).
pref(1933965,589604).
pref(324334,323514).
pref(1538895,323514).
pref(324272,323514).
pref(53905,323514).
pref(936409,323514).
pref(63774,323514).
pref(936375,936762).
pref(897198,897384).
pref(286629,1432434).
pref(1057014,1057568).
pref(897198,897339).
pref(897198,897351).
pref(325382,1538865).
pref(54676,1538865).
pref(325469,1538865).
pref(1057014,1057094).
pref(1057014,1057423).
pref(897198,897705).
pref(1057014,1057224).
pref(124668,761125).
pref(326926,761125).
pref(1057014,1057491).
pref(897198,897529).
pref(1057014,1057222).
pref(1057014,1057553).
pref(897198,897666).
pref(1057014,1057537).
pref(897198,897216).
pref(936375,936407).
pref(1057014,1057234).
pref(936375,936825).
pref(53671,1538939).
pref(1538940,1538939).
pref(936427,1538939).
pref(325336,1538939).
pref(323869,1538939).
pref(325085,1538939).
pref(1538938,1538939).
pref(1057014,1057074).
pref(325382,323955).
pref(58508,323955).
pref(1539037,323955).
pref(936479,323955).
pref(1538977,323955).
pref(56891,323955).
pref(1539048,323955).
pref(324024,323955).
pref(55803,323955).
pref(936394,323955).
pref(1538871,323955).
pref(1538872,323955).
pref(325052,323955).
pref(57884,323955).
pref(1057014,1057485).
pref(323266,1538957).
pref(325188,1538957).
pref(60744,1538957).
pref(1538955,1538957).
pref(288455,1845661).
pref(1067286,1900137).
pref(332583,1900137).
pref(1346480,1900137).
pref(1057014,1057314).
pref(1539011,1539012).
pref(325085,1539012).
pref(1539043,1539045).
pref(64063,1539045).
pref(323869,1539045).
pref(1057014,1057066).
pref(1057014,1057201).
pref(1057014,1057296).
pref(1057014,1057507).
pref(1057014,1057233).
pref(1057014,1057248).
pref(1057014,1057398).
pref(1057014,1057278).
pref(53671,1538877).
pref(936397,1538877).
pref(1057014,1057058).
pref(46489,1539844).
pref(530577,759877).
pref(1057014,1057281).
pref(1538871,1538872).
pref(325052,1538872).
pref(57884,1538872).
pref(129532,8586).
pref(323688,55601).
pref(1538968,55601).
pref(325085,55601).
pref(936389,55601).
pref(1538861,55601).
pref(897198,2055497).
pref(936425,325357).
pref(56687,325357).
pref(64337,325357).
pref(1538936,325357).
pref(1538934,325357).
pref(57884,325357).
pref(936394,325357).
pref(1538871,325357).
pref(325052,325357).
pref(897198,897503).
pref(897198,897265).
pref(1057014,1057549).
pref(323688,58624).
pref(55601,58624).
pref(1538968,58624).
pref(325085,58624).
pref(897198,897276).
pref(1057014,1057039).
pref(1057014,1057185).
pref(1057014,1057258).
pref(897198,2045478).
pref(1057014,1057093).
pref(70632,1538942).
pref(936428,1538942).
pref(324272,1538942).
pref(53905,1538942).
pref(57523,1538942).
pref(324728,1538942).
pref(1538941,1538942).
pref(936375,936496).
pref(897198,897465).
pref(1057014,1057372).
pref(1057014,1057573).
pref(325188,61070).
pref(325188,67266).
pref(325350,67266).
pref(897198,897274).
pref(897198,1375933).
pref(447592,1999647).
pref(936375,936538).
pref(1057014,1057028).
pref(936485,1539052).
pref(897198,897222).
pref(1057014,1057283).
pref(897198,1370853).
pref(50751,5899).
pref(58508,1538898).
pref(1538899,1538898).
pref(897198,2052347).
pref(1789411,46324).
pref(1944012,46324).
pref(1788885,46324).
pref(1788766,46324).
pref(897198,897403).
pref(936375,936449).
pref(1057014,1057544).
pref(58508,325074).
pref(936389,325074).
pref(1538861,325074).
pref(1539040,325074).
pref(64063,325074).
pref(897198,897665).
pref(1057014,1057499).
pref(897198,897244).
pref(2007730,897244).
pref(1057014,1375527).
pref(897198,897335).
pref(2,51683).
pref(1361104,1377323).
pref(936425,57884).
pref(1057014,1057480).
pref(1057014,1057535).
pref(1057014,1057348).
pref(897198,897556).
pref(1057014,1057505).
pref(1057014,1057085).
pref(1057014,1057324).
pref(936375,936705).
pref(897198,897479).
pref(1057014,1057317).
pref(1057014,1057578).
pref(897198,897422).
pref(936416,325294).
pref(1538912,325294).
pref(1538913,325294).
pref(56687,325294).
pref(323280,325294).
pref(54517,325294).
pref(1538911,325294).
pref(897198,897463).
pref(936375,936746).
pref(936375,936693).
pref(1057014,1057170).
pref(1760867,46829).
pref(1760182,46829).
pref(1931672,46829).
pref(1761332,46829).
pref(1760923,46829).
pref(1760815,46829).
pref(1760540,46829).
pref(1980594,46829).
pref(1760585,46829).
pref(1761069,46829).
pref(1760046,46829).
pref(1760787,46829).
pref(1761150,46829).
pref(1760433,46829).
pref(1538944,65292).
pref(1538945,65292).
pref(1538946,65292).
pref(324806,65292).
pref(58508,65292).
pref(936429,65292).
pref(64337,65292).
pref(56687,65292).
pref(54676,65292).
pref(325469,65292).
pref(286252,1431497).
pref(897198,897305).
pref(897198,897621).
pref(70188,74532).
pref(1539032,74532).
pref(323649,1538883).
pref(63233,1538883).
pref(1538884,1538883).
pref(325350,1538883).
pref(58508,1538883).
pref(936375,2056680).
pref(1057014,1057088).
pref(70188,324036).
pref(1539032,324036).
pref(1538931,324036).
pref(58425,324036).
pref(323280,324036).
pref(1539060,324036).
pref(1057014,1057197).
pref(1872796,1370227).
pref(32584,1370227).
pref(1872930,1370227).
pref(1872213,1370227).
pref(1872965,1370227).
pref(1872137,1370227).
pref(1872228,1370227).
pref(1872427,1370227).
pref(1873124,1370227).
pref(1872034,1370227).
pref(1872793,1370227).
pref(1872341,1370227).
pref(446541,1370227).
pref(1872157,1370227).
pref(1872981,1370227).
pref(1872454,1370227).
pref(1873216,1370227).
pref(1057014,1057450).
pref(1057014,1057086).
pref(324272,53905).
pref(324334,53905).
pref(936409,53905).
pref(63774,53905).
pref(897198,897652).
pref(936375,936499).
pref(1057014,1057247).
pref(1538944,1538945).
pref(1538946,1538945).
pref(324806,1538945).
pref(58508,1538945).
pref(936429,1538945).
pref(58508,323593).
pref(64337,323593).
pref(325074,323593).
pref(1538900,323593).
pref(325382,323593).
pref(936479,323593).
pref(1538944,323593).
pref(1538946,323593).
pref(324806,323593).
pref(936429,323593).
pref(1538914,323593).
pref(1538916,323593).
pref(323649,323593).
pref(63233,323593).
pref(1538884,323593).
pref(325350,323593).
pref(325188,323505).
pref(1538846,323505).
pref(65748,323505).
pref(936485,323505).
pref(325052,323505).
pref(57294,323505).
pref(936474,323505).
pref(897198,897230).
pref(1538953,1538954).
pref(58425,1538954).
pref(1057014,2046634).
pref(1057014,1057077).
pref(1057014,2053483).
pref(897198,897310).
pref(1057014,1057362).
pref(897198,897252).
pref(1057014,1057075).
pref(1057014,1057109).
pref(1057014,1057462).
pref(1057014,1057559).
pref(1057014,1057421).
pref(897198,897551).
pref(1539011,1539013).
pref(72420,1539013).
pref(324892,1539013).
pref(325085,1539013).
pref(936485,1539053).
pref(70632,1539053).
pref(325052,1539053).
pref(897198,897455).
pref(936375,936463).
pref(1539008,936463).
pref(324806,936463).
pref(56687,936463).
pref(54676,936463).
pref(325469,936463).
pref(1539007,936463).
pref(897198,1372980).
pref(897198,897637).
pref(1057014,1057294).
pref(897198,2051130).
pref(129532,370283).
pref(286629,1432498).
pref(1057014,2047154).
pref(858749,1486975).
pref(58508,68360).
pref(936389,68360).
pref(1538861,68360).
pref(1539040,68360).
pref(55172,68360).
pref(64063,68360).
pref(323775,68360).
pref(542057,759802).
pref(897198,897577).
pref(1057014,1057365).
pref(323649,66330).
pref(61767,66330).
pref(936461,66330).
pref(1539003,66330).
pref(1539043,66330).
pref(64063,66330).
pref(323869,66330).
pref(64337,66330).
pref(897198,897569).
pref(323191,9695).
pref(1938387,9695).
pref(1734042,9695).
pref(1734103,9695).
pref(897198,897323).
pref(897198,897560).
pref(1539018,1539019).
pref(64063,1539019).
pref(936467,1539019).
pref(325085,1539019).
pref(323775,1539019).
pref(70188,1539031).
pref(1539032,1539031).
pref(530577,2016720).
pref(936393,324320).
pref(1538869,324320).
pref(897198,897664).
pref(1057014,1057262).
pref(2,787596).
pref(897198,897659).
pref(1057014,1057488).
pref(325188,323266).
pref(125888,805601).
pref(1057014,1057261).
pref(897198,897497).
pref(1057014,1057069).
pref(936427,1538940).
pref(325085,1538940).
pref(1538938,1538940).
pref(936375,936804).
pref(324806,1539008).
pref(56687,1539008).
pref(325469,1539008).
pref(53671,68686).
pref(1538940,68686).
pref(936427,68686).
pref(323869,68686).
pref(325085,68686).
pref(1538938,68686).
pref(897198,897426).
pref(1057014,1057206).
pref(1057014,1057291).
pref(288455,1845653).
pref(589604,1939318).
pref(897198,897546).
pref(61767,323567).
pref(56687,323567).
pref(936375,936540).
pref(1057014,1057089).
pref(288455,490777).
pref(1760796,43864).
pref(16659,43864).
pref(1760082,43864).
pref(1760301,43864).
pref(1953385,43864).
pref(1760492,43864).
pref(1760999,43864).
pref(1760328,43864).
pref(1760184,43864).
pref(1760383,43864).
pref(1760042,43864).
pref(1760208,43864).
pref(1760319,43864).
pref(1760505,43864).
pref(1760397,43864).
pref(1760387,43864).
pref(1759978,43864).
pref(2007730,492250).
pref(1057014,457914).
pref(858749,1486396).
pref(324272,1538941).
pref(1057014,1057173).
pref(1057014,1057150).
pref(1057014,1374780).
pref(1057014,1057252).
pref(1057014,1057373).
pref(1057014,1057082).
pref(936375,936621).
pref(325382,54676).
pref(1538931,54676).
pref(58425,54676).
pref(56687,54676).
pref(897198,897336).
pref(897198,897686).
pref(1057014,1057367).
pref(1361104,1377922).
pref(858749,1487235).
pref(1057014,1057293).
pref(1057014,1057541).
pref(70632,325097).
pref(936428,325097).
pref(324272,325097).
pref(53905,325097).
pref(57523,325097).
pref(324728,325097).
pref(1538941,325097).
pref(63233,325097).
pref(325350,325097).
pref(936486,325097).
pref(1539056,325097).
pref(897198,897564).
pref(897198,897656).
pref(323280,66207).
pref(1539060,66207).
pref(1539061,66207).
pref(1538912,66207).
pref(1538913,66207).
pref(56687,66207).
pref(54517,66207).
pref(325085,59799).
pref(1539421,46489).
pref(1539398,46489).
pref(1539676,46489).
pref(1539688,46489).
pref(1539445,46489).
pref(1539700,46489).
pref(29251,46489).
pref(1539976,46489).
pref(1057014,1057215).
pref(936375,2050553).
pref(1057014,1057195).
pref(1057014,1057316).
pref(1538979,1538978).
pref(70632,1538978).
pref(69738,1538978).
pref(324728,1538978).
pref(936445,1538978).
pref(325382,936391).
pref(1057014,1057133).
pref(1057014,1057189).
pref(897198,897408).
pref(1057014,1057417).
pref(1057014,1057076).
pref(1057014,1057497).
pref(897198,897534).
pref(324806,1539006).
pref(56687,1539006).
pref(54676,1539006).
pref(288455,1844955).
pref(897198,897679).
pref(1538869,70188).
pref(324892,70188).
pref(1871947,43600).
pref(1871969,43600).
pref(1872090,43600).
pref(447210,43600).
pref(1873238,43600).
pref(1873094,43600).
pref(1872112,43600).
pref(1872357,43600).
pref(1978873,43600).
pref(1955901,43600).
pref(1872588,43600).
pref(1872061,43600).
pref(1872182,43600).
pref(1872270,43600).
pref(1872976,43600).
pref(1873097,43600).
pref(1872413,43600).
pref(1873232,43600).
pref(1873091,43600).
pref(1872309,43600).
pref(1873113,43600).
pref(897198,897502).
pref(1539011,936464).
pref(325085,936464).
pref(1057014,1057242).
pref(325188,65277).
pref(1538845,65277).
pref(1538846,65277).
pref(65748,65277).
pref(323846,65277).
pref(1538914,65277).
pref(58508,65277).
pref(325188,324789).
pref(1538845,324789).
pref(1538846,324789).
pref(323505,324789).
pref(65748,324789).
pref(323846,324789).
pref(1538914,324789).
pref(1538916,324789).
pref(58508,324789).
pref(1057014,1057273).
pref(1057014,1057205).
pref(1057014,2043625).
pref(64063,323869).
pref(325085,323869).
pref(1538938,323869).
pref(1057014,1057217).
pref(1057014,1057530).
pref(1057014,1057576).
pref(1057014,447367).
pref(338730,2024557).
pref(897198,897264).
pref(55172,324958).
pref(936420,324958).
pref(1538923,324958).
pref(1538924,324958).
pref(324272,324958).
pref(379312,762686).
pref(1057014,1057254).
pref(897198,897672).
pref(834713,130656).
pref(936375,2048572).
pref(897198,897579).
pref(897198,897450).
pref(936375,936694).
pref(936375,936478).
pref(1057014,1057046).
pref(1057014,1057067).
pref(1057014,1057272).
pref(1057014,1057356).
pref(288455,19995).
pref(1057014,1057506).
pref(1057014,1057064).
pref(325382,1539038).
pref(69738,1539038).
pref(58508,1539038).
pref(1539037,1539038).
pref(936479,1539038).
pref(43295,1512107).
pref(936375,936596).
pref(1539048,1539047).
pref(1539049,1539047).
pref(69738,1539047).
pref(324024,1539047).
pref(55803,1539047).
pref(897198,897376).
pref(897198,897650).
pref(1057014,1057214).
pref(1057014,1057532).
pref(323280,1539062).
pref(1539060,1539062).
pref(1539061,1539062).
pref(897198,897457).
pref(936485,60192).
pref(936415,60192).
pref(120053,763606).
pref(897198,897449).
pref(1539018,936467).
pref(64063,936467).
pref(325085,936467).
pref(1057014,1057300).
pref(1057014,1057167).
pref(1539003,1539002).
pref(897198,897525).
pref(936375,936836).
pref(1057014,1057495).
pref(897198,1376671).
pref(1057014,1057430).
pref(325350,1539057).
pref(325382,325469).
pref(58425,325469).
pref(1057014,1057429).
pref(1057014,1057153).
pref(1057014,1057338).
pref(323266,936434).
pref(325188,936434).
pref(60744,936434).
pref(1538955,936434).
pref(1538956,936434).
pref(65748,936434).
pref(1057014,1057477).
pref(1512283,286447).
pref(1513346,286447).
pref(1513060,286447).
pref(1057014,1057103).
pref(1057014,1057237).
pref(325382,1538866).
pref(325469,1538866).
pref(1057014,1057099).
pref(1057014,1057382).
pref(1057014,1057284).
pref(897198,897446).
pref(897198,897427).
pref(936375,936616).
pref(936393,1538868).
pref(70188,1538868).
pref(1538869,1538868).
pref(324892,1538868).
pref(897198,897303).
pref(1057014,1057267).
pref(1057014,1057280).
pref(1057014,1057310).
pref(936389,1538860).
pref(1538859,1538860).
pref(1538861,1538860).
pref(55172,72476).
pref(936420,72476).
pref(1538923,72476).
pref(1538924,72476).
pref(324272,72476).
pref(897198,897293).
pref(1057014,1057521).
pref(936422,55836).
pref(61767,55836).
pref(1538928,55836).
pref(53671,55836).
pref(1538953,55836).
pref(1538954,55836).
pref(58425,55836).
pref(323869,55836).
pref(286629,1432334).
pref(1057014,1057160).
pref(323846,1538905).
pref(324725,1538905).
pref(530577,875755).
pref(936375,936410).
pref(68360,936410).
pref(58508,936410).
pref(64337,936410).
pref(325074,936410).
pref(1538898,936410).
pref(1538899,936410).
pref(1538900,936410).
pref(1538953,936433).
pref(1538954,936433).
pref(58425,936433).
pref(323869,936433).
pref(897402,897198).
pref(897438,897198).
pref(897634,897198).
pref(897647,897198).
pref(897493,897198).
pref(897515,897198).
pref(897328,897198).
pref(897714,897198).
pref(897691,897198).
pref(897704,897198).
pref(897416,897198).
pref(897272,897198).
pref(897694,897198).
pref(897285,897198).
pref(897671,897198).
pref(897464,897198).
pref(897539,897198).
pref(897431,897198).
pref(897673,897198).
pref(897362,897198).
pref(897398,897198).
pref(897617,897198).
pref(2043874,897198).
pref(897407,897198).
pref(897541,897198).
pref(897397,897198).
pref(2049805,897198).
pref(897629,897198).
pref(897488,897198).
pref(2050282,897198).
pref(897707,897198).
pref(897301,897198).
pref(897533,897198).
pref(897631,897198).
pref(897379,897198).
pref(897333,897198).
pref(897225,897198).
pref(897290,897198).
pref(897555,897198).
pref(897411,897198).
pref(897280,897198).
pref(897545,897198).
pref(897620,897198).
pref(897600,897198).
pref(897698,897198).
pref(2043582,897198).
pref(897567,897198).
pref(897413,897198).
pref(897678,897198).
pref(897511,897198).
pref(897249,897198).
pref(130656,813925).
pref(1057014,1057377).
pref(1361104,1377152).
pref(897198,897467).
pref(1057014,1057339).
pref(1815893,48761).
pref(1815960,48761).
pref(1815865,48761).
pref(1815976,48761).
pref(73653,48761).
pref(1539944,860325).
pref(18081,860325).
pref(1965827,860325).
pref(1540115,860325).
pref(1540074,860325).
pref(1539975,860325).
pref(1539183,860325).
pref(897198,897217).
pref(897198,897522).
pref(64337,1538910).
pref(936415,1538910).
pref(1057014,1057463).
pref(936375,936669).
pref(1057014,1057265).
pref(1057014,2051216).
pref(1057014,1057184).
pref(1057014,2046614).
pref(897198,897606).
pref(936793,936375).
pref(936505,936375).
pref(936397,936375).
pref(936747,936375).
pref(936583,936375).
pref(936560,936375).
pref(936452,936375).
pref(936429,936375).
pref(936815,936375).
pref(936563,936375).
pref(936828,936375).
pref(936684,936375).
pref(936396,936375).
pref(936661,936375).
pref(936517,936375).
pref(2054280,936375).
pref(936409,936375).
pref(2048384,936375).
pref(936484,936375).
pref(936605,936375).
pref(936474,936375).
pref(936595,936375).
pref(936572,936375).
pref(936441,936375).
pref(936454,936375).
pref(1372473,936375).
pref(936575,936375).
pref(936817,936375).
pref(936663,936375).
pref(936509,936375).
pref(936630,936375).
pref(936378,936375).
pref(936453,936375).
pref(1373303,936375).
pref(2043612,936375).
pref(936816,936375).
pref(936420,936375).
pref(615572,936375).
pref(936685,936375).
pref(936541,936375).
pref(1374317,936375).
pref(936698,936375).
pref(936554,936375).
pref(936652,936375).
pref(936423,936375).
pref(936400,936375).
pref(936665,936375).
pref(936730,936375).
pref(936707,936375).
pref(936432,936375).
pref(936553,936375).
pref(936399,936375).
pref(936435,936375).
pref(2047867,936375).
pref(936412,936375).
pref(936389,936375).
pref(936654,936375).
pref(1376236,936375).
pref(2052444,936375).
pref(936788,936375).
pref(936379,936375).
pref(936490,936375).
pref(936601,936375).
pref(1370405,936375).
pref(936411,936375).
pref(936676,936375).
pref(936522,936375).
pref(936679,936375).
pref(936535,936375).
pref(936656,936375).
pref(936489,936375).
pref(936525,936375).
pref(936790,936375).
pref(936744,936375).
pref(936492,936375).
pref(1374353,936375).
pref(936413,936375).
pref(936835,936375).
pref(936547,936375).
pref(936812,936375).
pref(936403,936375).
pref(936668,936375).
pref(936380,936375).
pref(936658,936375).
pref(936514,936375).
pref(936383,936375).
pref(936769,936375).
pref(936625,936375).
pref(936579,936375).
pref(936736,936375).
pref(936592,936375).
pref(936448,936375).
pref(2050010,936375).
pref(936569,936375).
pref(936425,936375).
pref(936703,936375).
pref(936559,936375).
pref(1376285,936375).
pref(863364,936375).
pref(936778,936375).
pref(936526,936375).
pref(936768,936375).
pref(936539,936375).
pref(936660,936375).
pref(936781,936375).
pref(936591,936375).
pref(936627,936375).
pref(936748,936375).
pref(936473,936375).
pref(936450,936375).
pref(936427,936375).
pref(936548,936375).
pref(936780,936375).
pref(1539002,53538).
pref(323649,53538).
pref(61767,53538).
pref(1539001,53538).
pref(1539003,53538).
pref(63233,53538).
pref(1538884,53538).
pref(325350,53538).
pref(58508,53538).
pref(1057014,1057446).
pref(1057014,1057455).
pref(1057014,1057363).
pref(1057014,1057123).
pref(1057014,1057282).
pref(897198,2055985).
pref(1057014,1057053).
pref(1057014,1057531).
pref(897198,897231).
pref(936375,936424).
pref(324036,936424).
pref(1538931,936424).
pref(54676,936424).
pref(1538932,936424).
pref(58425,936424).
pref(325469,936424).
pref(1057014,1057419).
pref(345,1960334).
pref(897198,897399).
pref(1057014,1057125).
pref(1057014,1057484).
pref(936427,325336).
pref(1538938,325336).
pref(1057014,1057403).
pref(1057014,1057412).
pref(323280,1539060).
pref(1538977,324585).
pref(936375,936615).
pref(1057014,1057250).
pref(897198,897321).
pref(1057014,1057169).
pref(1057014,1057034).
pref(1057014,1057322).
pref(897198,897263).
pref(897198,897387).
pref(897198,897599).
pref(1057014,1057142).
pref(897198,897370).
pref(1057014,1057193).
pref(1361104,1945833).
pref(897198,2049055).
pref(1057014,1057030).
pref(1057014,1057424).
pref(1057014,1057569).
pref(325350,1538884).
pref(1057014,1057425).
pref(897198,897337).
pref(1057014,1057520).
pref(1057014,2010392).
pref(1057014,1057374).
pref(1057014,2051894).
pref(130656,842170).
pref(897198,897385).
pref(897198,897320).
pref(1057014,1057117).
pref(324272,936428).
pref(1538941,936428).
pref(1057014,1057329).
pref(1057014,1057331).
pref(897198,897675).
pref(45848,1931004).
pref(897198,897332).
pref(1057014,1057297).
pref(1057014,1057575).
pref(43295,1512212).
pref(897198,897601).
pref(897198,897578).
pref(1057014,1057145).
pref(2,796763).
pref(1057014,1057357).
pref(936375,936578).
pref(936375,936687).
pref(1057014,1057238).
pref(1057014,1057545).
pref(897198,2053382).
pref(1057014,1057127).
pref(1057014,1057136).
pref(897198,897583).
pref(345,1929126).
pref(58425,1538953).
pref(1057014,1057498).
pref(1057014,1057090).
pref(936416,1538911).
pref(1538912,1538911).
pref(1538913,1538911).
pref(56687,1538911).
pref(323280,1538911).
pref(54517,1538911).
pref(936375,936493).
pref(897198,897214).
pref(1057014,1057440).
pref(936375,936585).
pref(1057014,1057577).
pref(69738,1538873).
pref(1538871,1538873).
pref(325052,1538873).
pref(57884,1538873).
pref(897198,897506).
pref(1057014,1057375).
pref(1057014,1057120).
pref(1057014,1057216).
pref(323266,324218).
pref(325188,324218).
pref(1538914,324218).
pref(325350,324218).
pref(286629,488719).
pref(1057014,1057072).
pref(1057014,1057326).
pref(1057014,2045120).
pref(936375,936586).
pref(1057014,1057178).
pref(1538946,64337).
pref(936425,64337).
pref(936415,64337).
pref(936425,1538935).
pref(56687,1538935).
pref(1538934,1538935).
pref(57884,1538935).
pref(542057,1996490).
pref(323846,1538906).
pref(1057014,1057335).
pref(1057014,1057437).
pref(63233,936486).
pref(325350,936486).
pref(57523,936486).
pref(58425,1538931).
pref(1057014,2044846).
pref(897198,690066).
pref(1057014,1057452).
pref(1539011,323542).
pref(324892,323542).
pref(897198,897308).
pref(936375,936773).
pref(897198,897475).
pref(1057014,1057308).
pref(1057014,2051200).
pref(338730,759610).
pref(897198,897388).
pref(1057014,2046568).
pref(1057014,1057163).
pref(897198,897593).
pref(936422,325282).
pref(61767,325282).
pref(897198,897512).
pref(1057014,1057019).
pref(1057014,1057048).
pref(1057014,1057095).
pref(936375,1371197).
pref(325382,54602).
pref(58508,54602).
pref(936479,54602).
pref(54676,54602).
pref(325469,54602).
pref(1057014,1057525).
pref(1057014,1057156).
pref(1057014,1057139).
pref(286629,1431914).
pref(897198,897313).
pref(324272,1538922).
pref(936375,936653).
pref(1057014,1057441).
pref(936389,323271).
pref(1538859,323271).
pref(1538861,323271).
pref(325382,323271).
pref(60744,323271).
pref(936432,323271).
pref(1538996,323271).
pref(936375,2046220).
pref(1057014,1057183).
pref(897198,897279).
pref(61767,936385).
pref(323567,936385).
pref(56687,936385).
pref(1844624,42124).
pref(67391,42124).
pref(489395,42124).
pref(936375,936523).
pref(1057014,1057563).
pref(936375,936771).
pref(1057014,1057556).
pref(936428,1538943).
pref(324272,1538943).
pref(53905,1538943).
pref(1538941,1538943).
pref(1057014,1057141).
pref(129532,817777).
pref(1057014,1057154).
pref(897198,897532).
pref(1057014,2053151).
pref(1057014,1057361).
pref(1539043,1539044).
pref(64063,1539044).
pref(323775,1539044).
pref(1057014,1057519).
pref(1057014,1057565).
pref(1057014,2049165).
pref(1057014,1057522).
pref(323649,936461).
pref(61767,936461).
pref(1539003,936461).
pref(1057014,1057547).
pref(324272,70632).
pref(57523,70632).
pref(325052,70632).
pref(897198,897561).
pref(1057014,1057229).
pref(491305,2017218).
pref(325350,323649).
pref(897198,897642).
pref(897198,897481).
pref(60744,323846).
pref(1057014,1057327).
pref(1057014,1057330).
pref(9756,74113).
pref(1057014,1057572).
pref(323266,1538949).
pref(323846,1538949).
pref(60744,1538949).
pref(1538950,1538949).
pref(936432,1538949).
pref(1057014,1375961).
pref(1539018,60220).
pref(64063,60220).
pref(936467,60220).
pref(324725,60220).
pref(325085,60220).
pref(323775,60220).
pref(323688,60220).
pref(55601,60220).
pref(1538968,60220).
pref(1539011,60220).
pref(72420,60220).
pref(1539013,60220).
pref(936464,60220).
pref(324892,60220).
pref(53671,60220).
pref(1538940,60220).
pref(936427,60220).
pref(323869,60220).
pref(1538938,60220).
pref(2007730,852327).
pref(1057014,1057390).
pref(324272,324334).
pref(63774,324334).
pref(1057014,1057040).
pref(1057014,2047529).
pref(1539043,53671).
pref(64063,53671).
pref(936397,53671).
pref(58425,53671).
pref(936427,53671).
pref(1538938,53671).
pref(1057014,1057320).
pref(1057014,1057044).
pref(1057014,1057114).
pref(897198,1376172).
pref(1057014,1057135).
pref(936425,56687).
pref(1538912,56687).
pref(1538913,56687).
pref(323280,56687).
pref(54517,56687).
pref(1057014,1057140).
pref(1057014,1057161).
pref(897198,2043152).
pref(1057014,1057428).
pref(288455,1844762).
pref(1057014,1057020).
pref(897198,897623).
pref(58508,324806).
pref(936429,324806).
pref(63233,936402).
pref(325350,936402).
pref(58508,936402).
pref(1057014,1057063).
pref(1057014,1057235).
pref(1057014,1057456).
pref(1057014,1370543).
pref(2007730,74912).
pref(447592,876756).
pref(323846,55007).
pref(324725,55007).
pref(1538905,55007).
pref(1538906,55007).
pref(936414,55007).
pref(323266,55007).
pref(60744,55007).
pref(1538950,55007).
pref(936432,55007).
pref(324036,936476).
pref(70188,936476).
pref(1539031,936476).
pref(1539032,936476).
pref(1057014,1057511).
pref(1538869,936393).
pref(1057014,1057240).
pref(1057014,1057177).
pref(1057014,1057388).
pref(1057014,1057158).
pref(1057014,1057502).
pref(1057014,1057457).
pref(1057014,1057476).
pref(323846,1538907).
pref(324725,1538907).
pref(1538905,1538907).
pref(1538906,1538907).
pref(936414,1538907).
pref(897198,897478).
pref(1057014,1057321).
pref(1538869,324024).
pref(324892,324024).
pref(1538996,324024).
pref(55803,324024).
pref(57294,324024).
pref(936474,324024).
pref(1057014,1057045).
pref(1057014,1057416).
pref(897198,897412).
pref(2008846,433119).
pref(760354,433119).
pref(1981404,433119).
pref(61767,58472).
pref(1057014,1057400).
pref(323688,1538966).
pref(1538968,1538966).
pref(325085,1538966).
pref(897198,2048597).
pref(325188,936382).
pref(936375,936442).
pref(1057014,1057241).
pref(936393,1538870).
pref(1538869,1538870).
pref(1057014,1057101).
pref(1057014,1057448).
pref(897198,897644).
pref(1057014,1057407).
pref(1368695,1966845).
pref(1057014,1057405).
pref(1057014,1057510).
pref(897198,1373154).
pref(936389,60752).
pref(323266,60752).
pref(897198,897491).
pref(369678,760100).
pref(897198,897439).
pref(897198,897589).
pref(1057014,1057164).
pref(936425,1538934).
pref(1538912,936416).
pref(1538913,936416).
pref(323280,936416).
pref(54517,936416).
pref(1057014,1057137).
pref(1538851,1538852).
pref(324164,1538852).
pref(1538853,1538852).
pref(1057014,1057285).
pref(897198,897544).
pref(491305,873877).
pref(897198,897277).
pref(858749,1486447).
pref(53671,1538878).
pref(1538877,1538878).
pref(936397,1538878).
pref(64337,1538878).
pref(323869,1538878).
pref(1538879,1538878).
pref(64337,1538909).
pref(936415,1538909).
pref(1057014,2050871).
pref(936375,936777).
pref(936459,1538998).
pref(64337,1538998).
pref(1538996,1538998).
pref(1538997,1538998).
pref(324024,1538998).
pref(936485,1539051).
pref(1539052,1539051).
pref(1844501,1368695).
pref(1844478,1368695).
pref(1844502,1368695).
pref(2,797769).
pref(1057014,1057343).
pref(323688,324882).
pref(1538968,324882).
pref(325085,324882).
pref(936389,324882).
pref(286629,1431860).
pref(288455,1845703).
pref(324334,64730).
pref(1538895,64730).
pref(324272,64730).
pref(53905,64730).
pref(936409,64730).
pref(63774,64730).
pref(1057014,1057319).
pref(936375,936571).
pref(936375,936733).
pref(1057014,1057065).
pref(1057014,1057171).
pref(2040667,369699).
pref(448329,131762).
pref(1057014,1057096).
pref(1057014,1057052).
pref(369678,2039992).
pref(897198,897486).
pref(936375,936692).
pref(1057014,1057152).
pref(1538895,1538897).
pref(324272,1538897).
pref(936409,1538897).
pref(63774,1538897).
pref(781185,129532).
pref(1057014,1057021).
pref(1057014,1057070).
pref(323280,936488).
pref(324725,936488).
pref(1057014,1057376).
pref(2018482,447592).
pref(325382,69738).
pref(58508,69738).
pref(1539037,69738).
pref(1539048,69738).
pref(55803,69738).
pref(1538871,69738).
pref(325052,69738).
pref(58425,1538952).
pref(288455,1845156).
pref(1057014,1057431).
pref(1057014,1057481).
pref(1057014,1057370).
pref(1057014,1057172).
pref(1057014,1057231).
pref(1844880,288455).
pref(1845013,288455).
pref(1845762,288455).
pref(1845444,288455).
pref(1057014,1057548).
pref(936422,1538929).
pref(61767,1538929).
pref(1538928,1538929).
pref(936425,1538936).
pref(1057014,1057147).
pref(1057014,1057059).
pref(1057014,1057395).
pref(897198,897251).
pref(1538996,936459).
pref(1057014,1057029).
pref(43295,72828).
pref(1057014,1057385).
pref(57294,1539029).
pref(1539028,1539029).
pref(324024,1539029).
pref(936474,1539029).
pref(897198,897444).
pref(936375,936629).
pref(897198,2050019).
pref(57294,324919).
pref(324024,324919).
pref(936474,324919).
pref(897198,2053641).
pref(1057014,1057108).
pref(1057014,2052700).
pref(72420,74627).
pref(936393,74627).
pref(70188,74627).
pref(1538869,74627).
pref(324024,74627).
pref(324892,74627).
pref(936459,74627).
pref(64337,74627).
pref(1538996,74627).
pref(1538997,74627).
pref(1539048,74627).
pref(1539049,74627).
pref(69738,74627).
pref(55803,74627).
pref(57294,74627).
pref(323505,74627).
pref(1539027,74627).
pref(1539028,74627).
pref(324919,74627).
pref(936474,74627).
pref(897198,897420).
pref(324036,323851).
pref(74532,323851).
pref(70188,323851).
pref(1539031,323851).
pref(1539032,323851).
pref(325382,936479).
pref(1057014,1057027).
pref(897198,897586).
pref(1057014,1057199).
pref(325188,1538845).
pref(1538846,1538845).
pref(65748,1538845).
pref(936375,936646).
pref(1057014,1057303).
pref(1057014,1057451).
pref(1539018,1539017).
pref(64063,1539017).
pref(936467,1539017).
pref(324725,1539017).
pref(325085,1539017).
pref(323775,1539017).
pref(63233,1539058).
pref(325350,1539058).
pref(936486,1539058).
pref(57523,1539058).
pref(1057014,1057439).
pref(1057014,1057508).
pref(897198,897329).
pref(897198,897588).
pref(1057014,1057219).
pref(1057014,1980244).
pref(1057014,1057552).
pref(860325,1539905).
pref(9756,1844629).
pref(936375,936622).
pref(1057014,81304).
pref(1057014,1057512).
pref(897198,897338).
pref(1057014,1057298).
pref(1057014,1057392).
pref(897198,897470).
pref(1539040,936480).
pref(55172,936480).
pref(64063,936480).
pref(325074,936480).
pref(323775,936480).
pref(369678,1997747).
pref(936425,324408).
pref(56687,324408).
pref(64337,324408).
pref(1538936,324408).
pref(1538934,324408).
pref(1538935,324408).
pref(57884,324408).
pref(1539008,324408).
pref(324806,324408).
pref(54676,324408).
pref(325469,324408).
pref(1539007,324408).
pref(936416,324408).
pref(1538912,324408).
pref(1538913,324408).
pref(323280,324408).
pref(54517,324408).
pref(1538911,324408).
pref(1538851,324408).
pref(324164,324408).
pref(1538852,324408).
pref(1538853,324408).
pref(61767,324408).
pref(323567,324408).
pref(1057014,1057061).
pref(57294,1539027).
pref(936474,1539027).
pref(1057014,1057033).
pref(323649,1538885).
pref(63233,1538885).
pref(1538884,1538885).
pref(325350,1538885).
pref(58508,1538885).
pref(936402,1538885).
pref(1057014,1057203).
pref(1057014,1057188).
pref(1057014,1057554).
pref(1057014,1057358).
pref(345,1936417).
pref(897198,897258).
pref(897198,897566).
pref(1057014,1057369).
pref(60744,1538950).
pref(897198,897359).
pref(1057014,1374516).
pref(1057014,1057118).
pref(432778,1361104).
pref(1377366,1361104).
pref(1378138,1361104).
pref(1377612,1361104).
pref(1378244,1361104).
pref(1057014,1057276).
pref(1057014,1057239).
pref(1057014,1057461).
pref(897198,897386).
pref(1057014,1057333).
pref(58508,324041).
pref(64337,324041).
pref(325074,324041).
pref(1538900,324041).
pref(1538944,324041).
pref(1538946,324041).
pref(324806,324041).
pref(936429,324041).
pref(936425,324041).
pref(56687,324041).
pref(1538936,324041).
pref(1538934,324041).
pref(57884,324041).
pref(936459,324041).
pref(1538996,324041).
pref(1538997,324041).
pref(53671,324041).
pref(1538877,324041).
pref(936397,324041).
pref(323869,324041).
pref(1538879,324041).
pref(1538908,324041).
pref(325052,324041).
pref(936415,324041).
pref(1057014,1057024).
pref(57294,1539028).
pref(936474,1539028).
pref(2007730,1105269).
pref(2007730,1105697).
pref(897198,2045086).
pref(897198,897410).
pref(1057014,1057098).
pref(323266,1538951).
pref(323846,1538951).
pref(60744,1538951).
pref(1538950,1538951).
pref(936432,1538951).
pref(897198,897221).
pref(897198,897565).
pref(1538931,1538932).
pref(58425,1538932).
pref(325469,1538932).
pref(897198,897550).
pref(1057014,1057471).
pref(1057014,1057249).
pref(897198,897611).
pref(1057014,1057292).
pref(1539003,1539001).
pref(1057014,1057344).
pref(936422,325343).
pref(61767,325343).
pref(858749,1486523).
pref(1057014,1057255).
pref(1057014,1057449).
pref(1057014,1057087).
pref(1057014,1057404).
pref(897198,897528).
pref(1057014,1057134).
pref(1057014,1057110).
pref(897198,2056816).
pref(1539018,323775).
pref(64063,323775).
pref(1539040,323775).
pref(1539043,323775).
pref(897198,897609).
pref(38954,295166).
pref(936375,936602).
