att(cf_1,2618760).
att(cf_1,2615195).
att(cf_2,2471885).
att(cf_3,865920).
att(cf_4,2181497).
att(cf_5,292269).
att(cf_6,2918461).
att(cf_7,288783).
att(cf_8,867681).
att(cf_8,862375).
att(cf_9,2615195).
att(cf_10,2621537).
att(cf_10,2615195).
att(cf_11,295056).
att(cf_12,868153).
att(cf_13,287723).
att(cf_14,7480).
att(cf_15,4179).
att(cf_15,2919894).
att(cf_16,2471885).
att(cf_17,2615195).
att(cf_18,287723).
att(cf_19,2620208).
att(cf_19,2615195).
att(cf_20,867363).
att(cf_20,862375).
att(cf_21,287723).
att(cf_22,287723).
att(cf_23,862375).
att(cf_24,2618102).
att(cf_25,2615195).
att(cf_26,287723).
att(cf_27,7667).
att(cf_28,2029986).
att(cf_29,2620828).
att(cf_29,2615195).
att(cf_30,2615195).
att(cf_31,2618657).
att(cf_31,2615195).
att(cf_32,863235).
att(cf_32,862375).
att(cf_33,2615195).
att(cf_34,2623124).
att(cf_34,2615195).
att(cf_35,294267).
att(cf_36,862375).
att(cf_37,2615473).
att(cf_37,2615195).
att(cf_38,2472632).
att(cf_39,2617880).
att(cf_39,2615195).
att(cf_40,2618790).
att(cf_41,2620631).
att(cf_42,295165).
att(cf_43,862375).
att(cf_44,866264).
att(cf_44,862375).
att(cf_45,1891676).
att(cf_46,2620025).
att(cf_46,2615195).
att(cf_47,287723).
att(cf_48,287723).
att(cf_49,862375).
att(cf_50,290303).
att(cf_51,2621682).
att(cf_52,863702).
att(cf_53,287723).
att(cf_54,863722).
att(cf_54,862375).
att(cf_55,1636).
att(cf_56,862375).
att(cf_57,287723).
att(cf_58,2183313).
att(cf_58,2178055).
att(cf_59,1891676).
att(cf_60,288152).
att(cf_61,2615195).
att(cf_62,2619988).
att(cf_63,2914060).
att(cf_64,862375).
att(cf_65,862375).
att(cf_66,2183046).
att(cf_67,287723).
att(cf_68,2615195).
att(cf_69,287723).
att(cf_70,2619910).
att(cf_70,2615195).
att(cf_71,868161).
att(cf_71,862375).
att(cf_72,862375).
att(cf_73,2622811).
att(cf_73,2615195).
att(cf_74,2615195).
att(cf_75,293755).
att(cf_75,287723).
att(cf_76,2622950).
att(cf_76,2615195).
att(cf_77,290636).
att(cf_77,287723).
att(cf_78,2619580).
att(cf_78,2615195).
att(cf_79,2619636).
att(cf_80,723756).
att(cf_81,865300).
att(cf_81,862375).
att(cf_82,436551).
att(cf_82,436552).
att(cf_83,2917524).
att(cf_84,583799).
att(cf_85,2915600).
att(cf_85,4026).
att(cf_86,2620958).
att(cf_86,2615195).
att(cf_87,2180364).
att(cf_87,2178084).
att(cf_88,287723).
att(cf_89,2621610).
att(cf_90,2615195).
att(cf_91,2615195).
att(cf_92,290552).
att(cf_92,287723).
att(cf_93,868061).
att(cf_93,862375).
att(cf_94,2033355).
att(cf_95,2183212).
att(cf_95,2178084).
att(cf_96,862375).
att(cf_97,291934).
att(cf_98,2765240).
att(cf_99,293256).
att(cf_99,287723).
att(cf_100,2919893).
att(cf_101,2617836).
att(cf_101,2615195).
att(cf_102,720892).
att(cf_103,862375).
att(cf_104,2615195).
att(cf_105,867872).
att(cf_105,862375).
att(cf_106,865192).
att(cf_107,2615195).
att(cf_108,2615195).
att(cf_109,2615195).
att(cf_110,295027).
att(cf_110,287723).
att(cf_111,2615195).
att(cf_112,291308).
att(cf_112,287723).
att(cf_113,862375).
att(cf_114,294857).
att(cf_114,287723).
att(cf_115,863702).
att(cf_116,862375).
att(cf_117,2615195).
att(cf_118,862375).
att(cf_119,862375).
att(cf_120,2180342).
att(cf_121,2615195).
att(cf_122,2619086).
att(cf_123,1636).
att(cf_123,4812).
att(cf_124,2919896).
att(cf_125,2620007).
att(cf_125,2615195).
att(cf_126,2919894).
att(cf_127,2178389).
att(cf_128,2621381).
att(cf_128,2615195).
att(cf_129,862375).
att(cf_130,862375).
att(cf_131,2620690).
att(cf_132,292879).
att(cf_133,294729).
att(cf_134,2615195).
att(cf_135,2615195).
att(cf_136,287723).
att(cf_137,292017).
att(cf_138,581500).
att(cf_138,2914818).
att(cf_139,862375).
att(cf_140,1636).
att(cf_140,1628).
att(cf_141,862375).
att(cf_142,862375).
att(cf_143,2615195).
att(cf_144,2621875).
att(cf_145,868111).
att(cf_146,862375).
att(cf_147,2615195).
att(cf_148,2621646).
att(cf_149,2615195).
att(cf_150,2180237).
att(cf_151,862375).
att(cf_152,862375).
att(cf_153,2615195).
att(cf_154,2615195).
att(cf_155,2615195).
att(cf_156,862375).
att(cf_157,287723).
att(cf_158,2622838).
att(cf_158,2615195).
att(cf_159,2181262).
att(cf_160,287723).
att(cf_161,1543849).
att(cf_162,2621662).
att(cf_163,2177476).
att(cf_164,293016).
att(cf_164,287723).
att(cf_165,2615195).
att(cf_166,862375).
att(cf_167,862375).
att(cf_168,287980).
att(cf_169,862375).
att(cf_170,291145).
att(cf_170,287723).
att(cf_171,287723).
att(cf_172,287723).
att(cf_173,863702).
att(cf_174,2182928).
att(cf_175,287723).
att(cf_176,2619792).
att(cf_176,2615195).
att(cf_177,2615195).
att(cf_178,2622176).
att(cf_178,2615195).
att(cf_179,2919894).
att(cf_180,2913742).
att(cf_181,2033030).
att(cf_181,2029988).
att(cf_182,287723).
att(cf_183,293720).
att(cf_184,2919893).
att(cf_184,2472807).
att(cf_185,2912556).
att(cf_186,293677).
att(cf_186,287723).
att(cf_187,723246).
att(cf_188,862375).
att(cf_189,2620997).
att(cf_189,2615195).
att(cf_190,287723).
att(cf_191,2615195).
att(cf_192,287723).
att(cf_193,287723).
att(cf_194,2615195).
att(cf_195,2615195).
att(cf_196,2919891).
att(cf_197,862375).
att(cf_198,862375).
att(cf_199,291979).
att(cf_199,287723).
att(cf_200,291943).
att(cf_200,287723).
att(cf_201,2621290).
att(cf_201,2615195).
att(cf_202,290541).
att(cf_203,293952).
att(cf_204,2615195).
att(cf_205,290821).
att(cf_205,287723).
att(cf_206,2615195).
att(cf_207,2918461).
att(cf_208,287788).
att(cf_208,290919).
att(cf_209,2619926).
att(cf_209,2615195).
att(cf_210,2615195).
att(cf_211,862375).
att(cf_212,725897).
att(cf_213,293031).
att(cf_214,2029107).
att(cf_214,2029106).
att(cf_215,2619756).
att(cf_215,2615195).
att(cf_216,2622077).
att(cf_216,2615195).
att(cf_217,291449).
att(cf_218,722746).
att(cf_219,2918461).
att(cf_220,291788).
att(cf_220,287723).
att(cf_221,2919896).
att(cf_222,2619540).
att(cf_223,2615195).
att(cf_224,287723).
att(cf_225,2618146).
att(cf_226,2919324).
att(cf_226,2321443).
att(cf_227,866895).
att(cf_227,862375).
att(cf_228,287723).
att(cf_229,291951).
att(cf_230,862375).
att(cf_231,862375).
att(cf_232,862375).
att(cf_232,868858).
att(cf_233,293068).
att(cf_234,287723).
att(cf_235,287723).
att(cf_236,2615195).
att(cf_237,862375).
att(cf_238,2919893).
att(cf_239,295183).
att(cf_240,287723).
att(cf_241,288065).
att(cf_241,287723).
att(cf_242,862375).
att(cf_243,2621636).
att(cf_244,2615195).
att(cf_245,582728).
att(cf_246,2622849).
att(cf_247,2615195).
att(cf_248,287723).
att(cf_249,291778).
att(cf_249,287723).
att(cf_250,2919895).
att(cf_251,287723).
att(cf_252,2619088).
att(cf_253,862375).
att(cf_254,862390).
att(cf_254,862375).
att(cf_255,292871).
att(cf_255,287723).
att(cf_256,287723).
att(cf_257,287723).
att(cf_258,2034010).
att(cf_259,862375).
att(cf_260,2615195).
att(cf_260,2623066).
att(cf_261,2032576).
att(cf_262,2919895).
att(cf_262,2619751).
att(cf_263,2615195).
att(cf_264,295068).
att(cf_264,288932).
att(cf_265,2036929).
att(cf_266,868455).
att(cf_266,862375).
att(cf_267,2182748).
att(cf_267,2178084).
att(cf_268,2615195).
att(cf_269,862375).
att(cf_270,2618466).
att(cf_270,2615195).
att(cf_271,2615195).
att(cf_272,862375).
att(cf_273,2621371).
att(cf_274,862375).
att(cf_275,723052).
att(cf_276,2615195).
att(cf_277,295264).
att(cf_278,2615195).
att(cf_279,2915063).
att(cf_280,2034229).
att(cf_281,862375).
att(cf_282,2622251).
att(cf_282,2615195).
att(cf_283,862375).
att(cf_284,862375).
att(cf_285,294550).
att(cf_286,862375).
att(cf_287,2619060).
att(cf_288,287723).
att(cf_289,866695).
att(cf_289,862375).
att(cf_290,2618253).
att(cf_291,862375).
att(cf_292,2917527).
att(cf_292,2917524).
att(cf_293,2182793).
att(cf_294,862375).
att(cf_295,862375).
att(cf_296,862375).
att(cf_297,287723).
att(cf_298,2620794).
att(cf_299,862375).
att(cf_300,583949).
att(cf_301,862375).
att(cf_302,287723).
att(cf_303,2615195).
att(cf_304,584718).
att(cf_305,2619376).
att(cf_306,862375).
att(cf_307,2615195).
att(cf_308,2615195).
att(cf_309,862375).
att(cf_310,2615195).
att(cf_311,2615195).
att(cf_312,2620605).
att(cf_312,2615195).
att(cf_313,292618).
att(cf_313,287723).
att(cf_314,290172).
att(cf_314,287723).
att(cf_315,2181119).
att(cf_316,2033637).
att(cf_317,862375).
att(cf_318,2615195).
att(cf_319,867430).
att(cf_319,862375).
att(cf_320,2615195).
att(cf_321,290412).
att(cf_322,291896).
att(cf_323,2033265).
att(cf_324,287723).
att(cf_325,2035710).
att(cf_326,862375).
att(cf_327,2183305).
att(cf_328,2034599).
att(cf_329,2615195).
att(cf_330,863702).
att(cf_331,862439).
att(cf_331,862375).
att(cf_332,293703).
att(cf_332,287723).
att(cf_333,2615195).
att(cf_334,2615195).
att(cf_335,293378).
att(cf_336,287747).
att(cf_337,868387).
att(cf_337,2919896).
att(cf_338,2615195).
att(cf_339,2621253).
att(cf_339,2615195).
att(cf_340,2034362).
att(cf_341,2621786).
att(cf_341,2615195).
att(cf_342,584437).
att(cf_342,579876).
att(cf_343,287723).
att(cf_344,2615195).
att(cf_345,862375).
att(cf_346,862375).
att(cf_347,2919891).
att(cf_348,723847).
att(cf_348,719827).
att(cf_349,862375).
att(cf_350,862375).
att(cf_351,287723).
att(cf_352,2621197).
att(cf_352,2615195).
att(cf_353,2615195).
att(cf_354,862375).
att(cf_355,862375).
att(cf_356,295204).
att(cf_357,584585).
att(cf_358,287723).
att(cf_359,862375).
att(cf_360,863702).
att(cf_361,862375).
att(cf_362,287723).
att(cf_363,2615195).
att(cf_364,866964).
att(cf_364,862375).
att(cf_365,2033667).
att(cf_366,2615195).
att(cf_367,291361).
att(cf_367,287723).
att(cf_368,291680).
att(cf_368,287723).
att(cf_369,2615195).
att(cf_370,862375).
att(cf_371,579876).
att(cf_371,581120).
att(cf_372,287723).
att(cf_373,862375).
att(cf_373,865392).
att(cf_374,2035915).
att(cf_375,2615195).
att(cf_376,862375).
att(cf_377,2621592).
att(cf_378,866212).
att(cf_378,2919891).
att(cf_379,863702).
att(cf_380,290139).
att(cf_380,287723).
att(cf_381,291822).
att(cf_381,287723).
att(cf_382,2619894).
att(cf_383,2621188).
att(cf_384,291510).
att(cf_385,295371).
att(cf_386,287723).
att(cf_387,287723).
att(cf_388,719827).
att(cf_389,867929).
att(cf_389,862375).
att(cf_390,290335).
att(cf_391,2615195).
att(cf_392,2915600).
att(cf_393,862375).
att(cf_394,295202).
att(cf_394,287723).
att(cf_395,287723).
att(cf_396,862375).
att(cf_397,294070).
att(cf_398,2178080).
att(cf_398,2178084).
att(cf_399,2919892).
att(cf_400,2919893).
att(cf_401,2324660).
att(cf_401,2323524).
att(cf_402,862375).
att(cf_403,2471885).
att(cf_403,2474463).
att(cf_404,867103).
att(cf_405,2615195).
att(cf_406,862375).
att(cf_407,290595).
att(cf_408,2615195).
att(cf_409,2615195).
att(cf_410,862375).
att(cf_411,2615195).
att(cf_412,2615195).
att(cf_413,287787).
att(cf_414,862375).
att(cf_415,2615195).
att(cf_416,289468).
att(cf_417,287723).
att(cf_417,294062).
att(cf_418,862375).
att(cf_419,287723).
att(cf_420,287723).
att(cf_421,2919891).
att(cf_422,2615195).
att(cf_423,287723).
att(cf_424,2615195).
att(cf_425,862375).
att(cf_426,2621545).
att(cf_426,2615195).
att(cf_427,2919895).
att(cf_428,287723).
att(cf_429,292955).
att(cf_430,2615195).
att(cf_431,2622635).
att(cf_431,2615195).
att(cf_432,862375).
att(cf_433,292855).
att(cf_434,2919891).
att(cf_435,2615469).
att(cf_435,2616555).
att(cf_436,2615195).
att(cf_437,862375).
att(cf_438,287786).
att(cf_439,862375).
att(cf_440,1226).
att(cf_440,2912556).
att(cf_441,862375).
att(cf_442,287723).
att(cf_443,2615195).
att(cf_444,1636).
att(cf_445,2623114).
att(cf_446,287723).
att(cf_447,287723).
att(cf_448,2615195).
att(cf_449,2615195).
att(cf_450,2615195).
att(cf_451,292152).
att(cf_452,2622785).
att(cf_453,2615195).
att(cf_454,719827).
att(cf_455,2619719).
att(cf_456,868803).
att(cf_457,862375).
att(cf_458,2470796).
att(cf_458,2915063).
att(cf_459,287723).
att(cf_460,295046).
att(cf_461,868569).
att(cf_461,862375).
att(cf_462,1543849).
att(cf_463,2618357).
att(cf_463,2615195).
att(cf_464,862375).
att(cf_465,2619977).
att(cf_465,2615195).
att(cf_466,295299).
att(cf_467,290238).
att(cf_468,292207).
att(cf_469,2615195).
att(cf_470,287723).
att(cf_471,2615195).
att(cf_472,293425).
att(cf_473,2033840).
att(cf_474,287723).
att(cf_475,2471885).
att(cf_475,2476840).
att(cf_476,862375).
att(cf_477,1636).
att(cf_478,868552).
att(cf_478,862375).
att(cf_479,2615195).
att(cf_480,2323713).
att(cf_480,2323711).
att(cf_481,287723).
att(cf_482,294805).
att(cf_482,287723).
att(cf_483,290510).
att(cf_484,2615195).
att(cf_485,292498).
att(cf_486,2619081).
att(cf_487,720892).
att(cf_488,293944).
att(cf_489,287723).
att(cf_490,2622148).
att(cf_491,2035285).
att(cf_492,862375).
att(cf_493,294623).
att(cf_493,287723).
att(cf_494,2617651).
att(cf_494,2615195).
att(cf_495,290216).
att(cf_495,287723).
att(cf_496,291082).
att(cf_497,287723).
att(cf_498,2615195).
att(cf_499,290873).
att(cf_500,862375).
att(cf_501,290955).
att(cf_502,865895).
att(cf_502,862375).
att(cf_503,294378).
att(cf_504,862375).
att(cf_505,2615195).
att(cf_506,2622617).
att(cf_506,2615195).
att(cf_507,2919892).
att(cf_508,290380).
att(cf_509,722428).
att(cf_509,720892).
att(cf_510,2471885).
att(cf_511,3063).
att(cf_512,293522).
att(cf_513,581451).
att(cf_514,723783).
att(cf_515,2615195).
att(cf_516,862375).
att(cf_517,2615195).
att(cf_518,2617159).
att(cf_519,2915063).
att(cf_520,287723).
att(cf_521,292198).
att(cf_522,862375).
att(cf_523,2919896).
att(cf_524,862375).
att(cf_525,289708).
att(cf_525,287723).
att(cf_526,2029106).
att(cf_526,2036456).
att(cf_527,722578).
att(cf_528,862375).
att(cf_529,293006).
att(cf_529,287723).
att(cf_530,862375).
att(cf_531,2919896).
att(cf_532,2919892).
att(cf_533,2618887).
att(cf_534,2615195).
att(cf_535,291340).
att(cf_535,287723).
att(cf_536,2615195).
att(cf_537,862375).
att(cf_538,2615195).
att(cf_539,287723).
att(cf_540,2033813).
att(cf_541,287723).
att(cf_542,290436).
att(cf_542,287723).
att(cf_543,2619256).
att(cf_544,287723).
att(cf_545,1543849).
att(cf_546,2615195).
att(cf_547,292507).
att(cf_548,287723).
att(cf_549,2615195).
att(cf_550,291300).
att(cf_551,287723).
att(cf_552,2033530).
att(cf_553,2619844).
att(cf_554,290248).
att(cf_554,287723).
att(cf_555,725078).
att(cf_556,862375).
att(cf_557,2615195).
att(cf_558,862375).
att(cf_559,862375).
att(cf_560,866079).
att(cf_560,862375).
att(cf_561,862375).
att(cf_562,862375).
att(cf_563,2615195).
att(cf_564,2622224).
att(cf_565,2619747).
att(cf_565,2615195).
att(cf_566,862375).
att(cf_567,2622300).
att(cf_568,287723).
att(cf_569,862375).
att(cf_570,2036140).
att(cf_571,862375).
att(cf_572,292328).
att(cf_572,287723).
att(cf_573,2621975).
att(cf_574,862375).
att(cf_575,287723).
att(cf_576,2182280).
att(cf_577,287723).
att(cf_578,862375).
att(cf_579,862375).
att(cf_580,862375).
att(cf_581,862375).
att(cf_582,2615195).
att(cf_583,2471885).
att(cf_584,2615195).
att(cf_585,2919896).
att(cf_586,290098).
att(cf_587,287723).
att(cf_588,2615195).
att(cf_589,862375).
att(cf_590,2615195).
att(cf_591,862375).
att(cf_592,287723).
att(cf_593,862375).
att(cf_594,290983).
att(cf_594,287723).
att(cf_595,2179084).
att(cf_596,2615195).
att(cf_597,2615195).
att(cf_598,2615195).
att(cf_599,291798).
att(cf_599,287723).
att(cf_600,2472495).
att(cf_601,862375).
att(cf_602,862375).
att(cf_603,862375).
att(cf_604,2615195).
att(cf_605,291048).
att(cf_606,862375).
att(cf_607,2615195).
att(cf_608,862375).
att(cf_609,288932).
att(cf_609,294117).
att(cf_610,287723).
att(cf_611,2615195).
att(cf_611,2621619).
att(cf_612,862375).
att(cf_613,719827).
att(cf_614,287723).
att(cf_615,294019).
att(cf_615,287723).
att(cf_616,866366).
att(cf_616,862375).
att(cf_617,2615195).
att(cf_618,2622060).
att(cf_619,2615195).
att(cf_620,292911).
att(cf_621,862375).
att(cf_622,2919895).
att(cf_623,287723).
att(cf_624,2615195).
att(cf_625,862375).
att(cf_626,291529).
att(cf_627,869087).
att(cf_627,862375).
att(cf_628,2619606).
att(cf_628,2616555).
att(cf_629,288932).
att(cf_629,294625).
att(cf_630,292643).
att(cf_630,287723).
att(cf_631,290226).
att(cf_631,287723).
att(cf_632,295316).
att(cf_632,287723).
att(cf_633,862375).
att(cf_634,2619365).
att(cf_635,720892).
att(cf_636,2621885).
att(cf_637,2472829).
att(cf_638,862375).
att(cf_639,2029988).
att(cf_639,2035078).
att(cf_640,2615195).
att(cf_641,293783).
att(cf_641,287723).
att(cf_642,862375).
att(cf_643,2914056).
att(cf_644,2622802).
att(cf_644,2615195).
att(cf_645,862375).
att(cf_646,292733).
att(cf_647,2029988).
att(cf_647,2033627).
att(cf_648,862375).
att(cf_649,862375).
att(cf_650,862375).
att(cf_651,290282).
att(cf_652,2621058).
att(cf_652,2615195).
att(cf_653,869281).
att(cf_653,2919891).
att(cf_654,2615195).
att(cf_655,862375).
att(cf_656,2910639).
att(cf_656,2910632).
att(cf_657,2615195).
att(cf_658,862375).
att(cf_659,862375).
att(cf_660,2620736).
att(cf_661,2323713).
att(cf_662,292725).
att(cf_663,2183349).
att(cf_664,2178053).
att(cf_665,862375).
att(cf_666,294766).
att(cf_666,287723).
att(cf_667,863702).
att(cf_668,2621104).
att(cf_669,862375).
att(cf_670,2622447).
att(cf_671,287723).
att(cf_672,294089).
att(cf_673,293362).
att(cf_674,2615195).
att(cf_675,293897).
att(cf_676,291318).
att(cf_677,2915600).
att(cf_678,862375).
att(cf_679,295361).
att(cf_680,2919891).
att(cf_681,2619202).
att(cf_681,2615195).
att(cf_682,862375).
att(cf_683,2615195).
att(cf_684,2918461).
att(cf_685,2028801).
att(cf_686,863702).
att(cf_687,294433).
att(cf_688,862375).
att(cf_689,2615195).
att(cf_690,291383).
att(cf_691,862375).
att(cf_692,293667).
att(cf_692,287723).
att(cf_693,862375).
att(cf_694,865450).
att(cf_694,862375).
att(cf_695,2615195).
att(cf_696,862375).
att(cf_697,2615195).
att(cf_698,287723).
att(cf_699,2615195).
att(cf_700,2615195).
att(cf_701,862375).
att(cf_702,291134).
att(cf_702,287723).
att(cf_703,292945).
att(cf_704,2621261).
att(cf_704,2615195).
att(cf_705,862375).
att(cf_706,294588).
att(cf_707,292364).
att(cf_707,287723).
att(cf_708,2619128).
att(cf_709,2919896).
att(cf_710,6141).
att(cf_711,2919826).
att(cf_712,292526).
att(cf_712,287723).
att(cf_713,867139).
att(cf_714,864258).
att(cf_715,294668).
att(cf_716,2615195).
att(cf_717,862375).
att(cf_718,2619487).
att(cf_718,2615195).
att(cf_719,862375).
att(cf_720,287723).
att(cf_721,2617599).
att(cf_721,2615195).
att(cf_722,2615195).
att(cf_723,862375).
att(cf_724,2615195).
att(cf_725,293388).
att(cf_726,862375).
att(cf_727,287723).
att(cf_728,2615195).
att(cf_729,2919329).
att(cf_730,2615195).
att(cf_731,292372).
att(cf_732,2618377).
att(cf_732,2615195).
att(cf_733,2912556).
att(cf_734,2183238).
att(cf_735,2615195).
att(cf_736,287723).
att(cf_737,293705).
att(cf_738,862375).
att(cf_739,862375).
att(cf_740,2919891).
att(cf_741,2472632).
att(cf_742,290196).
att(cf_743,292653).
att(cf_744,584671).
att(cf_745,287723).
att(cf_746,287723).
att(cf_747,862375).
att(cf_748,2919894).
att(cf_749,2615195).
att(cf_750,862375).
att(cf_751,862375).
att(cf_752,862375).
att(cf_753,2615195).
att(cf_754,287723).
att(cf_755,2615195).
att(cf_756,862375).
att(cf_757,2621519).
att(cf_757,2615195).
att(cf_758,295128).
att(cf_759,2919894).
att(cf_760,862375).
att(cf_761,867596).
att(cf_761,862375).
att(cf_762,862375).
att(cf_763,862375).
att(cf_764,867786).
att(cf_764,862375).
att(cf_765,2617717).
att(cf_766,2029985).
att(cf_767,862375).
att(cf_768,2618407).
att(cf_768,2615195).
att(cf_769,2622333).
att(cf_769,2615195).
att(cf_770,287723).
att(cf_771,2912556).
att(cf_772,2619695).
att(cf_773,2615195).
att(cf_773,2623022).
att(cf_774,862375).
att(cf_775,2616515).
att(cf_776,2621120).
att(cf_776,2615195).
att(cf_777,2618810).
att(cf_777,2615195).
att(cf_778,2919894).
att(cf_778,5647).
att(cf_779,2615195).
att(cf_780,2178081).
att(cf_781,2919894).
att(cf_781,6641).
att(cf_782,292132).
att(cf_782,287723).
att(cf_783,287723).
att(cf_784,293879).
att(cf_785,2615195).
att(cf_786,287723).
att(cf_787,293567).
att(cf_788,862375).
att(cf_789,867307).
att(cf_789,862375).
att(cf_790,287723).
att(cf_791,2181118).
att(cf_792,295230).
att(cf_792,287723).
att(cf_793,2615195).
att(cf_794,862375).
att(cf_795,862375).
att(cf_796,2472496).
att(cf_796,2472494).
att(cf_797,2919896).
att(cf_798,287723).
att(cf_799,2619448).
att(cf_800,2619112).
att(cf_800,2615195).
att(cf_801,2615195).
att(cf_802,2919894).
att(cf_803,2615195).
att(cf_804,862375).
att(cf_805,862375).
att(cf_806,2620920).
att(cf_806,2615195).
att(cf_807,287723).
att(cf_808,287723).
att(cf_809,2623076).
att(cf_809,2615195).
att(cf_810,2915062).
att(cf_811,2615195).
att(cf_812,862375).
att(cf_813,2615195).
att(cf_814,2619123).
att(cf_815,287723).
att(cf_816,294034).
att(cf_817,287723).
att(cf_818,2615195).
att(cf_819,287723).
att(cf_820,290615).
att(cf_821,862375).
att(cf_822,862375).
att(cf_822,868116).
att(cf_823,287723).
att(cf_824,2615195).
att(cf_825,287723).
att(cf_826,2619497).
att(cf_827,862375).
att(cf_828,293558).
att(cf_829,294403).
att(cf_830,720892).
att(cf_831,2615195).
att(cf_832,2036416).
att(cf_833,862375).
att(cf_834,2615195).
att(cf_835,294703).
att(cf_836,866314).
att(cf_836,862375).
att(cf_837,287723).
att(cf_838,2615195).
att(cf_839,2622744).
att(cf_840,865987).
att(cf_841,862375).
att(cf_842,2622852).
att(cf_843,862375).
att(cf_844,287723).
att(cf_845,719826).
att(cf_845,719827).
att(cf_846,2615195).
att(cf_847,580262).
att(cf_848,295343).
att(cf_848,287723).
att(cf_849,2620902).
att(cf_849,2615195).
att(cf_850,862375).
att(cf_851,287723).
att(cf_852,294467).
att(cf_852,287723).
att(cf_853,862375).
att(cf_854,866158).
att(cf_854,862375).
att(cf_855,2615195).
att(cf_856,287723).
att(cf_857,295381).
att(cf_858,294206).
att(cf_859,287723).
att(cf_860,287723).
att(cf_861,862375).
att(cf_862,862375).
att(cf_863,2620413).
att(cf_864,287723).
att(cf_865,862375).
att(cf_866,2615195).
att(cf_867,287723).
att(cf_868,294894).
att(cf_869,2617403).
att(cf_869,2615195).
att(cf_870,579869).
att(cf_870,579876).
att(cf_871,2615195).
att(cf_872,294225).
att(cf_873,862375).
att(cf_874,2615195).
att(cf_875,2619369).
att(cf_876,2615195).
att(cf_877,294042).
att(cf_878,294813).
att(cf_879,2765574).
att(cf_880,862375).
att(cf_881,287723).
att(cf_882,868979).
att(cf_882,2919896).
att(cf_883,2615195).
att(cf_884,2919894).
att(cf_884,5765).
att(cf_885,288026).
att(cf_885,287723).
att(cf_886,862375).
att(cf_886,867034).
att(cf_887,868969).
att(cf_887,862375).
att(cf_888,2622355).
att(cf_889,292408).
att(cf_890,2918461).
att(cf_891,1636).
att(cf_892,862375).
att(cf_893,862375).
att(cf_894,579876).
att(cf_895,2919895).
att(cf_896,2619858).
att(cf_897,862375).
att(cf_898,287723).
att(cf_899,2615195).
att(cf_900,294304).
att(cf_901,862375).
att(cf_902,287723).
att(cf_903,2615195).
att(cf_904,2181351).
att(cf_905,290740).
att(cf_906,293094).
att(cf_907,2615195).
att(cf_908,862375).
att(cf_909,287723).
att(cf_910,868090).
att(cf_910,862375).
att(cf_911,2615195).
att(cf_912,2324476).
att(cf_912,2323524).
att(cf_913,867374).
att(cf_913,862375).
att(cf_914,2032907).
att(cf_914,2029966).
att(cf_915,290294).
att(cf_916,862375).
att(cf_917,1891676).
att(cf_918,862375).
att(cf_919,2621902).
att(cf_919,2615195).
att(cf_920,862375).
att(cf_921,2471885).
att(cf_922,2615195).
att(cf_923,290482).
att(cf_924,2919895).
att(cf_925,2615195).
att(cf_926,864734).
att(cf_926,862375).
att(cf_927,2615195).
att(cf_928,863702).
att(cf_929,862375).
att(cf_930,2844).
att(cf_930,2915063).
att(cf_931,862375).
att(cf_932,295220).
att(cf_933,1636).
att(cf_934,437723).
att(cf_934,437724).
att(cf_935,2618318).
att(cf_935,2615195).
att(cf_936,1893250).
att(cf_937,862375).
att(cf_938,866305).
att(cf_938,862375).
att(cf_939,2621735).
att(cf_940,287723).
att(cf_941,2620577).
att(cf_941,2615195).
att(cf_942,290448).
att(cf_943,287723).
att(cf_944,294797).
att(cf_945,287723).
att(cf_946,2615195).
att(cf_947,2615195).
att(cf_948,2913742).
att(cf_949,291016).
att(cf_949,287723).
att(cf_950,2617616).
att(cf_951,863702).
att(cf_952,292965).
att(cf_953,292381).
att(cf_953,287723).
att(cf_954,288929).
att(cf_955,2619239).
att(cf_955,2615195).
att(cf_956,292974).
att(cf_957,287723).
att(cf_958,2617505).
att(cf_959,862375).
att(cf_960,2032074).
att(cf_961,862375).
att(cf_962,584277).
att(cf_963,2615195).
att(cf_964,290721).
att(cf_965,862375).
att(cf_966,293494).
att(cf_966,287723).
att(cf_967,862375).
att(cf_968,290574).
att(cf_968,287723).
att(cf_969,293078).
att(cf_970,2615195).
att(cf_971,294788).
att(cf_972,287723).
att(cf_973,293207).
att(cf_974,2615195).
att(cf_975,2323713).
att(cf_976,863702).
att(cf_977,2473907).
att(cf_978,862375).
att(cf_979,292400).
att(cf_979,287723).
att(cf_980,862375).
att(cf_981,2615201).
att(cf_981,2615195).
att(cf_982,862375).
att(cf_983,289628).
att(cf_983,287723).
att(cf_984,2177792).
att(cf_985,868421).
att(cf_986,862375).
att(cf_987,295324).
att(cf_987,287723).
att(cf_988,862375).
att(cf_989,295307).
att(cf_990,2919896).
att(cf_991,287723).
att(cf_992,287723).
att(cf_993,2617543).
att(cf_993,2615195).
att(cf_994,2914056).
att(cf_995,2180478).
att(cf_996,578649).
att(cf_997,862375).
att(cf_998,862375).
att(cf_999,290402).
att(cf_1000,292744).
att(cf_1000,288932).
att(cf_1001,2181200).
att(cf_1002,2615195).
att(cf_1003,862375).
att(cf_1004,2619166).
att(cf_1005,292663).
att(cf_1005,287723).
att(cf_1006,287723).
att(cf_1007,292488).
att(cf_1008,287723).
att(cf_1009,2615195).
att(cf_1010,2617774).
att(cf_1011,862375).
att(cf_1012,2615195).
att(cf_1013,293485).
att(cf_1013,287723).
att(cf_1014,862375).
att(cf_1015,579870).
att(cf_1015,579876).
att(cf_1016,2615195).
att(cf_1016,2615714).
att(cf_1017,862375).
att(cf_1018,2622003).
att(cf_1019,287723).
att(cf_1020,2621085).
att(cf_1020,2615195).
att(cf_1021,2471885).
att(cf_1022,293139).
att(cf_1023,2919895).
att(cf_1024,2615195).
att(cf_1025,862375).
att(cf_1026,862375).
att(cf_1027,2615195).
att(cf_1028,2621017).
att(cf_1029,292280).
att(cf_1030,287723).
att(cf_1031,2622960).
att(cf_1032,865869).
att(cf_1033,294649).
att(cf_1034,868124).
att(cf_1034,862375).
att(cf_1035,862375).
att(cf_1036,2623109).
att(cf_1037,2615195).
att(cf_1038,2615195).
att(cf_1039,287723).
att(cf_1040,2471885).
att(cf_1041,2616972).
att(cf_1042,288859).
att(cf_1043,294831).
att(cf_1044,865114).
att(cf_1044,862375).
att(cf_1045,2615195).
att(cf_1046,2615195).
att(cf_1047,2615195).
att(cf_1048,863702).
att(cf_1049,720892).
att(cf_1050,2032677).
att(cf_1051,292890).
att(cf_1052,2615195).
att(cf_1053,294970).
att(cf_1054,295254).
att(cf_1054,287723).
att(cf_1055,2617846).
att(cf_1055,2615195).
att(cf_1056,294162).
att(cf_1057,2913742).
att(cf_1058,865736).
att(cf_1058,862375).
att(cf_1059,287723).
att(cf_1060,294483).
att(cf_1060,287723).
att(cf_1061,862375).
att(cf_1062,2615195).
att(cf_1063,2615195).
att(cf_1064,862375).
att(cf_1065,2621048).
att(cf_1065,2615195).
att(cf_1066,2615195).
att(cf_1067,292442).
att(cf_1067,287723).
att(cf_1068,290841).
att(cf_1069,2615195).
att(cf_1070,287723).
att(cf_1071,2615195).
att(cf_1072,581634).
att(cf_1073,862375).
att(cf_1074,2765500).
att(cf_1074,2765240).
att(cf_1075,862375).
att(cf_1076,287723).
att(cf_1077,2618368).
att(cf_1077,2615195).
att(cf_1078,2471885).
att(cf_1079,2471885).
att(cf_1080,287723).
att(cf_1081,2617983).
att(cf_1082,2620015).
att(cf_1082,2615195).
att(cf_1083,2615195).
att(cf_1084,2620939).
att(cf_1085,2471885).
att(cf_1086,2621946).
att(cf_1086,2615195).
att(cf_1087,862375).
att(cf_1088,293763).
att(cf_1089,2474368).
att(cf_1089,2471885).
att(cf_1090,2919893).
att(cf_1091,2615195).
att(cf_1092,295100).
att(cf_1093,287723).
att(cf_1094,292188).
att(cf_1095,2029988).
att(cf_1095,2034779).
att(cf_1096,291657).
att(cf_1097,2615195).
att(cf_1098,287723).
att(cf_1099,287723).
att(cf_1100,287723).
att(cf_1101,290386).
att(cf_1102,2910632).
att(cf_1103,2622765).
att(cf_1104,2615195).
att(cf_1105,862375).
att(cf_1106,2615195).
att(cf_1107,862375).
att(cf_1108,2615195).
att(cf_1109,294492).
att(cf_1109,287723).
att(cf_1110,294187).
att(cf_1111,2178055).
att(cf_1111,2182353).
att(cf_1112,2619570).
att(cf_1113,862375).
att(cf_1114,288784).
att(cf_1115,865993).
att(cf_1115,862375).
att(cf_1116,287723).
att(cf_1117,293765).
att(cf_1118,2919894).
att(cf_1119,2615195).
att(cf_1120,2620855).
att(cf_1121,2617475).
att(cf_1122,862375).
att(cf_1123,287723).
att(cf_1124,2618529).
att(cf_1124,2615195).
att(cf_1125,2919894).
att(cf_1126,2615195).
att(cf_1127,2915600).
att(cf_1128,292242).
att(cf_1129,2618906).
att(cf_1130,2615195).
att(cf_1131,2619738).
att(cf_1132,862375).
att(cf_1133,862375).
att(cf_1134,287889).
att(cf_1135,2615195).
att(cf_1136,2615195).
att(cf_1137,862375).
att(cf_1138,293311).
att(cf_1139,862375).
att(cf_1140,2617719).
att(cf_1141,719825).
att(cf_1141,719827).
att(cf_1142,862375).
att(cf_1143,2615195).
att(cf_1144,292042).
att(cf_1144,287723).
att(cf_1145,2615195).
att(cf_1146,866510).
att(cf_1146,862375).
att(cf_1147,287723).
att(cf_1148,287723).
att(cf_1149,2765240).
att(cf_1150,293164).
att(cf_1151,2615195).
att(cf_1152,2616713).
att(cf_1153,868430).
att(cf_1153,862375).
att(cf_1154,2619824).
att(cf_1154,2615195).
att(cf_1155,290831).
att(cf_1156,2033999).
att(cf_1157,725607).
att(cf_1158,2028801).
att(cf_1158,2031491).
att(cf_1159,868731).
att(cf_1159,862375).
att(cf_1160,2615195).
att(cf_1161,2615195).
att(cf_1162,719827).
att(cf_1163,294694).
att(cf_1163,287723).
att(cf_1164,287723).
att(cf_1165,2615195).
att(cf_1166,2618901).
att(cf_1167,2623127).
att(cf_1168,2623104).
att(cf_1169,862788).
att(cf_1169,862375).
att(cf_1170,862375).
att(cf_1171,291732).
att(cf_1172,2471885).
att(cf_1173,863702).
att(cf_1174,2032234).
att(cf_1175,2029036).
att(cf_1176,2616553).
att(cf_1177,862375).
att(cf_1178,2621022).
att(cf_1178,2615195).
att(cf_1179,290964).
att(cf_1180,2919895).
att(cf_1181,2617516).
att(cf_1182,2323524).
att(cf_1183,2474060).
att(cf_1184,287723).
att(cf_1185,289234).
att(cf_1186,2618309).
att(cf_1187,2615195).
att(cf_1188,2178054).
att(cf_1189,2615195).
att(cf_1190,862375).
att(cf_1191,862375).
att(cf_1192,2615195).
att(cf_1193,2622280).
att(cf_1193,2615195).
att(cf_1194,862375).
att(cf_1195,287723).
att(cf_1196,293455).
att(cf_1196,287723).
att(cf_1197,2615195).
att(cf_1198,2036857).
att(cf_1199,2620392).
att(cf_1200,863702).
att(cf_1201,2621216).
att(cf_1201,2615195).
att(cf_1202,2919894).
att(cf_1203,862375).
att(cf_1204,869050).
att(cf_1204,862375).
att(cf_1205,291925).
att(cf_1206,2177792).
att(cf_1207,2619323).
att(cf_1207,2615195).
att(cf_1208,294324).
att(cf_1209,2621201).
att(cf_1210,862375).
att(cf_1211,2620502).
att(cf_1212,2615195).
att(cf_1213,291262).
att(cf_1213,287723).
att(cf_1214,290813).
att(cf_1214,290098).
att(cf_1215,287723).
att(cf_1216,292769).
att(cf_1217,287723).
att(cf_1218,1636).
att(cf_1219,294841).
att(cf_1220,862375).
att(cf_1221,2615195).
att(cf_1222,294413).
att(cf_1222,287723).
att(cf_1223,294233).
att(cf_1224,292312).
att(cf_1225,2615195).
att(cf_1226,2622103).
att(cf_1226,2615195).
att(cf_1227,866598).
att(cf_1227,862375).
att(cf_1228,2615195).
att(cf_1229,2615195).
att(cf_1230,2618538).
att(cf_1230,2615195).
att(cf_1231,862375).
att(cf_1232,1891676).
att(cf_1233,287723).
att(cf_1234,2615195).
att(cf_1234,2622347).
att(cf_1235,867657).
att(cf_1235,2919896).
att(cf_1236,862375).
att(cf_1237,2615195).
att(cf_1238,2183211).
att(cf_1239,294442).
att(cf_1240,291960).
att(cf_1241,287723).
att(cf_1242,862375).
att(cf_1243,2028801).
att(cf_1244,288633).
att(cf_1245,862850).
att(cf_1245,862375).
att(cf_1246,2615195).
att(cf_1247,2615195).
att(cf_1248,2618200).
att(cf_1248,2615195).
att(cf_1249,2620114).
att(cf_1249,2615195).
att(cf_1250,868403).
att(cf_1250,862375).
att(cf_1251,293190).
att(cf_1251,287723).
att(cf_1252,293137).
att(cf_1253,287723).
att(cf_1254,287723).
att(cf_1255,582511).
att(cf_1255,2919892).
att(cf_1256,287723).
att(cf_1257,2615195).
att(cf_1258,2035519).
att(cf_1258,2029966).
att(cf_1259,862375).
att(cf_1260,862375).
att(cf_1261,2323524).
att(cf_1262,1572).
att(cf_1263,582896).
att(cf_1263,2919892).
att(cf_1264,862375).
att(cf_1265,290698).
att(cf_1265,287723).
att(cf_1266,862375).
att(cf_1267,2919893).
att(cf_1268,2622697).
att(cf_1269,862375).
att(cf_1270,862375).
att(cf_1271,294512).
att(cf_1272,2919891).
att(cf_1273,2323524).
att(cf_1274,2622474).
att(cf_1274,2615195).
att(cf_1275,291071).
att(cf_1275,287723).
att(cf_1276,581451).
att(cf_1277,582431).
att(cf_1278,287723).
att(cf_1279,294640).
att(cf_1279,287723).
att(cf_1280,290851).
att(cf_1281,2617892).
att(cf_1281,2615195).
att(cf_1282,862375).
att(cf_1283,2183063).
att(cf_1284,862375).
att(cf_1285,2035594).
att(cf_1286,288293).
att(cf_1286,287723).
att(cf_1287,2615195).
att(cf_1288,295326).
att(cf_1289,293024).
att(cf_1290,2032932).
att(cf_1291,584451).
att(cf_1292,862375).
att(cf_1293,2615195).
att(cf_1294,290809).
att(cf_1295,2323524).
att(cf_1296,2616555).
att(cf_1296,2621162).
att(cf_1297,2621352).
att(cf_1297,2615195).
att(cf_1298,2622977).
att(cf_1299,287723).
att(cf_1300,862375).
att(cf_1301,2615896).
att(cf_1302,287723).
att(cf_1303,725487).
att(cf_1304,294756).
att(cf_1304,287723).
att(cf_1305,287723).
att(cf_1306,2617728).
att(cf_1307,287723).
att(cf_1308,2615485).
att(cf_1309,719827).
att(cf_1310,862375).
att(cf_1311,2029966).
att(cf_1311,2032228).
att(cf_1312,294738).
att(cf_1313,290098).
att(cf_1313,290097).
att(cf_1314,287723).
att(cf_1315,862375).
att(cf_1316,291728).
att(cf_1316,287723).
att(cf_1317,2615195).
att(cf_1318,862375).
att(cf_1319,2919891).
att(cf_1320,862375).
att(cf_1321,2622969).
att(cf_1321,2615195).
att(cf_1322,2183738).
att(cf_1323,289621).
att(cf_1324,291164).
att(cf_1325,294685).
att(cf_1325,287723).
att(cf_1326,583837).
att(cf_1327,2029106).
att(cf_1328,2029965).
att(cf_1329,294581).
att(cf_1330,293909).
att(cf_1331,862375).
att(cf_1332,2029106).
att(cf_1333,2471885).
att(cf_1333,2476657).
att(cf_1334,862375).
att(cf_1335,2615195).
att(cf_1336,866472).
att(cf_1336,862375).
att(cf_1337,862375).
att(cf_1338,437722).
att(cf_1339,2615195).
att(cf_1340,2032463).
att(cf_1341,862375).
att(cf_1342,2473398).
att(cf_1343,862375).
att(cf_1344,584035).
att(cf_1344,2919892).
att(cf_1345,2919893).
att(cf_1346,2615195).
att(cf_1347,2615195).
att(cf_1348,2618007).
att(cf_1348,2615195).
att(cf_1349,2765550).
att(cf_1349,2765552).
att(cf_1350,2919894).
att(cf_1351,293613).
att(cf_1351,287723).
att(cf_1352,2471885).
att(cf_1352,2471883).
att(cf_1353,288708).
att(cf_1354,291091).
att(cf_1355,866003).
att(cf_1355,862375).
att(cf_1356,2622364).
att(cf_1357,293711).
att(cf_1357,287723).
att(cf_1358,862375).
att(cf_1359,862375).
att(cf_1360,2615195).
att(cf_1361,862375).
att(cf_1362,865176).
att(cf_1362,862375).
att(cf_1363,292759).
att(cf_1364,2471885).
att(cf_1365,862375).
att(cf_1366,287723).
att(cf_1367,294500).
att(cf_1367,287723).
att(cf_1368,862375).
att(cf_1369,288921).
att(cf_1370,2622779).
att(cf_1371,291716).
att(cf_1371,287723).
att(cf_1372,2028801).
att(cf_1373,2615195).
att(cf_1374,862375).
att(cf_1375,2621956).
att(cf_1376,291479).
att(cf_1376,287723).
att(cf_1377,2471885).
att(cf_1378,2620581).
att(cf_1379,2616632).
att(cf_1379,2615195).
att(cf_1380,291329).
att(cf_1380,287723).
att(cf_1381,2036003).
att(cf_1382,2615195).
att(cf_1383,2765571).
att(cf_1383,2765574).
att(cf_1384,864804).
att(cf_1384,862375).
att(cf_1385,1636).
att(cf_1386,2615195).
att(cf_1387,287723).
att(cf_1388,7679).
att(cf_1389,291869).
att(cf_1389,287723).
att(cf_1390,287723).
att(cf_1391,2620703).
att(cf_1392,295084).
att(cf_1392,287723).
att(cf_1393,2473908).
att(cf_1394,2919893).
att(cf_1394,2472506).
att(cf_1395,862375).
att(cf_1396,2622190).
att(cf_1396,2615195).
att(cf_1397,287723).
att(cf_1398,863702).
att(cf_1399,292319).
att(cf_1399,287723).
att(cf_1400,2615195).
att(cf_1401,2618838).
att(cf_1401,2615195).
att(cf_1402,7436).
att(cf_1403,862375).
att(cf_1404,579875).
att(cf_1405,292070).
att(cf_1406,2919891).
att(cf_1407,2029988).
att(cf_1407,2033752).
att(cf_1408,862375).
att(cf_1409,2618637).
att(cf_1409,2615195).
att(cf_1410,290098).
att(cf_1410,290824).
att(cf_1411,862375).
att(cf_1412,291272).
att(cf_1412,287723).
att(cf_1413,720892).
att(cf_1414,581008).
att(cf_1414,2919324).
att(cf_1415,2615195).
att(cf_1416,862375).
att(cf_1417,287723).
att(cf_1418,287723).
att(cf_1419,2615195).
att(cf_1420,2620355).
att(cf_1421,295289).
att(cf_1421,287723).
att(cf_1422,862375).
att(cf_1423,719827).
att(cf_1423,726290).
att(cf_1424,2179538).
att(cf_1425,862375).
att(cf_1426,862375).
att(cf_1427,295138).
att(cf_1428,293869).
att(cf_1428,287723).
att(cf_1429,2032915).
att(cf_1430,2615195).
att(cf_1431,2618026).
att(cf_1431,2615195).
att(cf_1432,862375).
att(cf_1433,2914823).
att(cf_1434,2029105).
att(cf_1435,2622820).
att(cf_1435,2615195).
att(cf_1436,2323524).
att(cf_1436,2324767).
att(cf_1437,862375).
att(cf_1438,862375).
att(cf_1439,290624).
att(cf_1440,2034411).
att(cf_1441,2620382).
att(cf_1441,2615195).
att(cf_1442,2617914).
att(cf_1442,2615195).
att(cf_1443,287723).
att(cf_1444,863596).
att(cf_1445,862375).
att(cf_1446,862375).
att(cf_1447,862375).
att(cf_1448,2615195).
att(cf_1449,2032323).
att(cf_1449,2028801).
att(cf_1450,862375).
att(cf_1451,292629).
att(cf_1452,2615195).
att(cf_1453,287723).
att(cf_1454,291734).
att(cf_1455,581342).
att(cf_1456,2615195).
att(cf_1457,2913742).
att(cf_1458,2615195).
att(cf_1459,437316).
att(cf_1460,2471885).
att(cf_1461,867956).
att(cf_1461,862375).
att(cf_1462,2615195).
att(cf_1463,287723).
att(cf_1464,2912556).
att(cf_1465,2181215).
att(cf_1465,2178055).
att(cf_1466,2620968).
att(cf_1466,2615195).
att(cf_1467,2621026).
att(cf_1467,2919895).
att(cf_1468,294782).
att(cf_1469,287723).
att(cf_1470,289145).
att(cf_1471,862375).
att(cf_1472,287723).
att(cf_1473,1891676).
att(cf_1474,2616059).
att(cf_1475,862375).
att(cf_1476,2618970).
att(cf_1477,2615195).
att(cf_1478,2615195).
att(cf_1479,2619221).
att(cf_1479,2615195).
att(cf_1480,293728).
att(cf_1480,287723).
att(cf_1481,287723).
att(cf_1482,2034336).
att(cf_1483,287723).
att(cf_1484,287723).
att(cf_1485,2620700).
att(cf_1485,2615195).
att(cf_1486,862375).
att(cf_1487,2765240).
att(cf_1488,862375).
att(cf_1489,2323524).
att(cf_1489,2324000).
att(cf_1490,2032256).
att(cf_1491,2615195).
att(cf_1492,2615195).
att(cf_1493,2615195).
att(cf_1494,2919831).
att(cf_1495,2919892).
att(cf_1496,2180718).
att(cf_1497,862375).
att(cf_1498,2615195).
att(cf_1499,287723).
att(cf_1500,862375).
att(cf_1501,2615195).
att(cf_1502,862375).
att(cf_1503,2615195).
att(cf_1504,292554).
att(cf_1505,295352).
att(cf_1506,2472632).
att(cf_1507,862375).
att(cf_1508,290369).
att(cf_1509,2919894).
att(cf_1510,2618418).
att(cf_1511,290096).
att(cf_1512,287723).
att(cf_1513,2472632).
att(cf_1514,862375).
att(cf_1515,2622680).
att(cf_1516,2615195).
att(cf_1517,2615195).
att(cf_1518,862375).
att(cf_1518,868819).
att(cf_1519,862375).
att(cf_1520,2474065).
att(cf_1520,2472632).
att(cf_1521,2622543).
att(cf_1521,2615195).
att(cf_1522,862375).
att(cf_1523,2615195).
att(cf_1524,862375).
att(cf_1525,2765574).
att(cf_1526,293446).
att(cf_1527,2618115).
att(cf_1528,287723).
att(cf_1529,2618070).
att(cf_1529,2615195).
att(cf_1530,293246).
att(cf_1530,287723).
att(cf_1531,293834).
att(cf_1531,287723).
att(cf_1532,293772).
att(cf_1533,2615195).
att(cf_1534,864936).
att(cf_1534,862375).
att(cf_1535,866650).
att(cf_1536,2617065).
att(cf_1536,2615195).
att(cf_1537,866877).
att(cf_1537,862375).
att(cf_1538,290645).
att(cf_1539,294331).
att(cf_1540,291740).
att(cf_1541,862375).
att(cf_1542,294257).
att(cf_1542,287723).
att(cf_1543,2615195).
att(cf_1544,2177792).
att(cf_1545,2615195).
att(cf_1546,2471885).
att(cf_1546,2472407).
att(cf_1547,2620241).
att(cf_1548,2181069).
att(cf_1549,295036).
att(cf_1550,2182373).
att(cf_1551,862375).
att(cf_1552,2020).
att(cf_1553,2615195).
att(cf_1554,2615195).
att(cf_1555,862375).
att(cf_1556,1891673).
att(cf_1556,1891676).
att(cf_1557,862375).
att(cf_1558,2036514).
att(cf_1559,293049).
att(cf_1559,287723).
att(cf_1560,866536).
att(cf_1560,862375).
att(cf_1561,291916).
att(cf_1561,287723).
att(cf_1562,2919893).
att(cf_1563,287723).
att(cf_1564,2615195).
att(cf_1565,2035683).
att(cf_1566,862375).
att(cf_1567,2180520).
att(cf_1568,2034617).
att(cf_1569,2919893).
att(cf_1570,862375).
att(cf_1571,2615195).
att(cf_1572,2617376).
att(cf_1573,862375).
att(cf_1574,287723).
att(cf_1575,867751).
att(cf_1575,862375).
att(cf_1576,1636).
att(cf_1577,287723).
att(cf_1578,862375).
att(cf_1579,287723).
att(cf_1580,865369).
att(cf_1580,862375).
att(cf_1581,293990).
att(cf_1582,863702).
att(cf_1583,862375).
att(cf_1584,862375).
att(cf_1585,287723).
att(cf_1586,291297).
att(cf_1587,293978).
att(cf_1588,287723).
att(cf_1589,2615195).
att(cf_1590,2618582).
att(cf_1590,2615195).
att(cf_1591,291176).
att(cf_1591,287723).
att(cf_1592,2615195).
att(cf_1593,2622317).
att(cf_1594,2029106).
att(cf_1594,2034928).
att(cf_1595,2615195).
att(cf_1596,2615195).
att(cf_1597,293327).
att(cf_1597,287723).
att(cf_1598,293531).
att(cf_1598,287723).
att(cf_1599,292800).
att(cf_1600,292627).
att(cf_1601,862375).
att(cf_1602,724341).
att(cf_1602,719827).
att(cf_1603,290387).
att(cf_1604,2617711).
att(cf_1605,862375).
att(cf_1606,2919891).
att(cf_1607,2036727).
att(cf_1608,287723).
att(cf_1609,291987).
att(cf_1609,287723).
att(cf_1610,2621141).
att(cf_1611,862375).
att(cf_1612,2615195).
att(cf_1613,292705).
att(cf_1613,287723).
att(cf_1614,287723).
att(cf_1615,293376).
att(cf_1616,2615195).
att(cf_1617,291738).
att(cf_1618,2615195).
att(cf_1619,2620303).
att(cf_1619,2615195).
att(cf_1620,2615195).
att(cf_1621,287723).
att(cf_1622,582628).
att(cf_1623,2615195).
att(cf_1624,2615195).
att(cf_1624,2621462).
att(cf_1625,1636).
att(cf_1626,2615195).
att(cf_1627,293738).
att(cf_1628,292391).
att(cf_1629,867986).
att(cf_1629,862375).
att(cf_1630,2183435).
att(cf_1631,862375).
att(cf_1632,869105).
att(cf_1632,862375).
att(cf_1633,2616554).
att(cf_1634,287723).
att(cf_1635,287723).
att(cf_1636,287723).
att(cf_1637,290583).
att(cf_1638,287723).
att(cf_1639,2615195).
att(cf_1640,294115).
att(cf_1641,719155).
att(cf_1641,719827).
att(cf_1642,719827).
att(cf_1643,2621573).
att(cf_1643,2615195).
att(cf_1644,292179).
att(cf_1645,294615).
att(cf_1645,287723).
att(cf_1646,291469).
att(cf_1647,865905).
att(cf_1647,862375).
att(cf_1648,2919896).
att(cf_1649,862375).
att(cf_1650,2181469).
att(cf_1650,2178055).
att(cf_1651,287723).
att(cf_1652,287723).
att(cf_1653,862375).
att(cf_1654,294097).
att(cf_1654,287723).
att(cf_1655,862375).
att(cf_1656,2035342).
att(cf_1657,2919891).
att(cf_1658,438700).
att(cf_1659,2615195).
att(cf_1660,2180740).
att(cf_1661,1893208).
att(cf_1662,2619505).
att(cf_1662,2615195).
att(cf_1663,862375).
att(cf_1664,862375).
att(cf_1665,862375).
att(cf_1666,2919895).
att(cf_1667,295194).
att(cf_1668,862375).
att(cf_1669,294105).
att(cf_1670,2615195).
att(cf_1671,291718).
att(cf_1671,287723).
att(cf_1672,2615195).
att(cf_1673,2618300).
att(cf_1674,2028801).
att(cf_1675,862375).
att(cf_1676,2618015).
att(cf_1676,2615195).
att(cf_1677,2035295).
att(cf_1678,292086).
att(cf_1678,287723).
att(cf_1679,2615195).
att(cf_1680,868601).
att(cf_1681,2618881).
att(cf_1681,2615195).
att(cf_1682,863702).
att(cf_1682,867159).
att(cf_1683,290285).
att(cf_1684,2910632).
att(cf_1685,862375).
att(cf_1686,862375).
att(cf_1687,293659).
att(cf_1688,862375).
att(cf_1689,292750).
att(cf_1690,2615195).
att(cf_1691,2615195).
att(cf_1692,867234).
att(cf_1692,862375).
att(cf_1693,1891676).
att(cf_1694,2471885).
att(cf_1695,294422).
att(cf_1695,287788).
att(cf_1696,862375).
att(cf_1697,291859).
att(cf_1698,2615195).
att(cf_1699,1891676).
att(cf_1700,2471885).
att(cf_1700,2476091).
att(cf_1701,2619729).
att(cf_1702,287723).
att(cf_1703,295002).
att(cf_1704,862375).
att(cf_1705,2615195).
att(cf_1706,294052).
att(cf_1706,287723).
att(cf_1707,287723).
att(cf_1708,287723).
att(cf_1709,862375).
att(cf_1710,288930).
att(cf_1711,862375).
att(cf_1712,862375).
att(cf_1713,2620372).
att(cf_1714,862375).
att(cf_1715,294322).
att(cf_1715,287723).
att(cf_1716,2615195).
att(cf_1717,293237).
att(cf_1718,2621919).
att(cf_1718,2615195).
att(cf_1719,2033447).
att(cf_1720,287723).
att(cf_1721,862375).
att(cf_1722,293129).
att(cf_1722,287723).
att(cf_1723,862375).
att(cf_1724,863685).
att(cf_1725,290994).
att(cf_1726,2919892).
att(cf_1727,2919891).
att(cf_1728,287723).
att(cf_1729,862375).
att(cf_1729,868529).
att(cf_1730,2615195).
att(cf_1731,865197).
att(cf_1732,291743).
att(cf_1733,862375).
att(cf_1734,2615195).
att(cf_1735,862375).
att(cf_1736,2617727).
att(cf_1736,2615195).
att(cf_1737,862375).
att(cf_1738,2615195).
att(cf_1739,294009).
att(cf_1740,2617901).
att(cf_1741,862375).
att(cf_1742,2919892).
att(cf_1743,292881).
att(cf_1744,867512).
att(cf_1744,862375).
att(cf_1745,862375).
att(cf_1746,287723).
att(cf_1747,862375).
att(cf_1748,2619139).
att(cf_1749,2619991).
att(cf_1749,2919895).
att(cf_1750,2615195).
att(cf_1751,2618721).
att(cf_1751,2615195).
att(cf_1752,2615195).
att(cf_1752,2617607).
att(cf_1753,862375).
att(cf_1753,867484).
att(cf_1754,2035919).
att(cf_1755,293512).
att(cf_1755,287723).
att(cf_1756,287723).
att(cf_1757,2615195).
att(cf_1758,862375).
att(cf_1759,862375).
att(cf_1760,292300).
att(cf_1760,287723).
att(cf_1761,866972).
att(cf_1761,862375).
att(cf_1762,862375).
att(cf_1763,287723).
att(cf_1764,287723).
att(cf_1765,287723).
att(cf_1766,2618137).
att(cf_1767,862375).
att(cf_1768,862375).
att(cf_1769,583187).
att(cf_1770,293434).
att(cf_1771,2471885).
att(cf_1772,2620536).
att(cf_1773,294080).
att(cf_1773,287723).
att(cf_1774,8918).
att(cf_1775,2622260).
att(cf_1776,2620337).
att(cf_1776,2615195).
att(cf_1777,2615195).
att(cf_1778,287723).
att(cf_1779,2618166).
att(cf_1779,2615195).
att(cf_1780,2615195).
att(cf_1781,294849).
att(cf_1781,287723).
att(cf_1782,2765552).
att(cf_1783,1636).
att(cf_1784,862375).
att(cf_1785,579499).
att(cf_1786,2619430).
att(cf_1786,2615195).
att(cf_1787,2621701).
att(cf_1788,290733).
att(cf_1789,2177792).
att(cf_1790,2615195).
att(cf_1791,2615195).
att(cf_1792,2619500).
att(cf_1793,2181576).
att(cf_1794,2615195).
att(cf_1795,2619210).
att(cf_1795,2615195).
att(cf_1796,2615195).
att(cf_1797,1636).
att(cf_1798,723562).
att(cf_1798,719827).
att(cf_1799,2619453).
att(cf_1800,291628).
att(cf_1801,862375).
att(cf_1802,293747).
att(cf_1803,866901).
att(cf_1803,862375).
att(cf_1804,2615195).
att(cf_1805,2615195).
att(cf_1806,862375).
att(cf_1807,2615195).
att(cf_1808,294358).
att(cf_1809,287723).
att(cf_1810,868171).
att(cf_1810,862375).
att(cf_1811,862375).
att(cf_1812,2619798).
att(cf_1812,2615195).
att(cf_1813,2915600).
att(cf_1814,1891676).
att(cf_1815,290689).
att(cf_1816,294539).
att(cf_1817,2615195).
att(cf_1818,862375).
att(cf_1819,293888).
att(cf_1819,287723).
att(cf_1820,862375).
att(cf_1821,866407).
att(cf_1821,862375).
att(cf_1822,287723).
att(cf_1823,290742).
att(cf_1824,862375).
att(cf_1825,287723).
att(cf_1826,862375).
att(cf_1827,290973).
att(cf_1828,862375).
att(cf_1829,289636).
att(cf_1829,2915600).
att(cf_1830,862375).
att(cf_1831,2471885).
att(cf_1832,862375).
att(cf_1833,2615195).
att(cf_1834,2622286).
att(cf_1835,862375).
att(cf_1836,862375).
att(cf_1837,2615195).
att(cf_1838,2621236).
att(cf_1838,2615195).
att(cf_1839,2622756).
att(cf_1840,862375).
att(cf_1841,295010).
att(cf_1842,2617486).
att(cf_1842,2615195).
att(cf_1843,2031367).
att(cf_1844,2615195).
att(cf_1845,2181903).
att(cf_1846,2472632).
att(cf_1846,2472630).
att(cf_1847,862375).
att(cf_1848,862375).
att(cf_1849,862375).
att(cf_1850,292336).
att(cf_1851,291714).
att(cf_1852,292308).
att(cf_1852,287788).
att(cf_1853,862375).
att(cf_1854,582576).
att(cf_1855,862375).
att(cf_1856,2620596).
att(cf_1857,2615195).
att(cf_1858,2179571).
att(cf_1859,2615195).
att(cf_1860,867719).
att(cf_1861,862375).
att(cf_1862,862375).
att(cf_1863,862375).
att(cf_1864,2028801).
att(cf_1865,862375).
att(cf_1866,867130).
att(cf_1867,2617697).
att(cf_1868,862375).
att(cf_1869,2621508).
att(cf_1870,2037003).
att(cf_1870,2029966).
att(cf_1871,2615195).
att(cf_1872,862375).
att(cf_1873,2919895).
att(cf_1874,2615195).
att(cf_1875,292232).
att(cf_1876,2615195).
att(cf_1877,862375).
att(cf_1878,2615195).
att(cf_1879,2615195).
att(cf_1880,2919895).
att(cf_1881,2919894).
att(cf_1882,2919891).
att(cf_1883,292143).
att(cf_1884,2615195).
att(cf_1885,2621744).
att(cf_1885,2919895).
att(cf_1886,2472074).
att(cf_1887,287723).
att(cf_1888,862375).
att(cf_1889,862375).
att(cf_1890,2182884).
att(cf_1891,1636).
att(cf_1892,290359).
att(cf_1893,2615195).
att(cf_1894,862375).
att(cf_1895,862375).
att(cf_1896,2615195).
att(cf_1897,862375).
att(cf_1898,2622383).
att(cf_1899,287723).
att(cf_1900,869132).
att(cf_1900,2919896).
att(cf_1901,295237).
att(cf_1902,2615195).
att(cf_1903,2615195).
att(cf_1904,2615195).
att(cf_1905,2622024).
att(cf_1905,2615195).
att(cf_1906,581635).
att(cf_1907,862375).
att(cf_1908,2919894).
att(cf_1909,2619095).
att(cf_1910,862375).
att(cf_1911,2618549).
att(cf_1912,2615195).
att(cf_1913,862375).
att(cf_1914,2619775).
att(cf_1915,291488).
att(cf_1915,287723).
att(cf_1916,2615195).
att(cf_1917,2183608).
att(cf_1918,862375).
att(cf_1919,864599).
att(cf_1919,862375).
att(cf_1920,2615195).
att(cf_1921,2621413).
att(cf_1921,2615195).
att(cf_1922,2620930).
att(cf_1922,2615195).
att(cf_1923,295244).
att(cf_1924,290521).
att(cf_1925,2471885).
att(cf_1925,2475638).
att(cf_1926,862375).
att(cf_1927,2918281).
att(cf_1928,2618593).
att(cf_1928,2615195).
att(cf_1929,2615195).
att(cf_1930,2615195).
att(cf_1931,289786).
att(cf_1932,143748).
att(cf_1932,2917524).
att(cf_1933,287723).
att(cf_1934,2615195).
att(cf_1935,2615195).
att(cf_1936,287790).
att(cf_1937,2615195).
att(cf_1938,4808).
att(cf_1939,2615195).
att(cf_1940,2621966).
att(cf_1940,2615195).
att(cf_1941,291210).
att(cf_1942,142895).
att(cf_1943,2615195).
att(cf_1944,862375).
att(cf_1945,862375).
att(cf_1946,287723).
att(cf_1947,862375).
att(cf_1948,867636).
att(cf_1948,862375).
att(cf_1949,2177792).
att(cf_1950,2615195).
att(cf_1951,862375).
att(cf_1952,862375).
att(cf_1953,866809).
att(cf_1953,862375).
att(cf_1954,287723).
att(cf_1955,293086).
att(cf_1956,862375).
att(cf_1957,2919894).
att(cf_1958,2618939).
att(cf_1958,2615195).
att(cf_1959,2615195).
att(cf_1960,290882).
att(cf_1961,290900).
att(cf_1962,2032897).
att(cf_1963,2615195).
att(cf_1964,2615195).
att(cf_1965,287723).
att(cf_1966,2919891).
att(cf_1967,2620276).
att(cf_1968,2035810).
att(cf_1969,864854).
att(cf_1969,862375).
att(cf_1970,290129).
att(cf_1971,2615195).
att(cf_1972,287723).
att(cf_1973,287723).
att(cf_1974,287723).
att(cf_1975,867554).
att(cf_1976,866618).
att(cf_1976,862375).
att(cf_1977,862375).
att(cf_1978,287723).
att(cf_1979,862375).
att(cf_1980,2615195).
att(cf_1981,2471885).
att(cf_1982,2914818).
att(cf_1982,2324192).
att(cf_1983,2619939).
att(cf_1983,2919895).
att(cf_1984,2034147).
att(cf_1985,287723).
att(cf_1986,867217).
att(cf_1986,862375).
att(cf_1987,287723).
att(cf_1988,862375).
att(cf_1989,287928).
att(cf_1990,2622429).
att(cf_1990,2615195).
att(cf_1991,2622339).
att(cf_1991,2615195).
att(cf_1992,290658).
att(cf_1993,2621855).
att(cf_1994,2034832).
att(cf_1995,5169).
att(cf_1996,2615214).
att(cf_1996,2615195).
att(cf_1997,2618387).
att(cf_1998,862375).
att(cf_1999,2622373).
att(cf_2000,2615195).
att(cf_2001,2615195).
att(cf_2002,2615195).
att(cf_2003,292051).
att(cf_2003,287723).
att(cf_2004,287723).
att(cf_2005,287881).
att(cf_2006,2615195).
att(cf_2007,2623164).
att(cf_2007,2615195).
att(cf_2008,2620158).
att(cf_2008,2615195).
att(cf_2009,862375).
att(cf_2010,862375).
att(cf_2011,862375).
att(cf_2012,294395).
att(cf_2013,862375).
att(cf_2014,862375).
att(cf_2015,293475).
att(cf_2015,287723).
att(cf_2016,2615195).
att(cf_2017,862375).
att(cf_2018,862375).
att(cf_2019,862375).
att(cf_2020,2615195).
att(cf_2021,2615195).
att(cf_2022,862375).
att(cf_2023,2919895).
att(cf_2024,287723).
att(cf_2025,862375).
att(cf_2026,2615195).
att(cf_2027,862375).
att(cf_2028,2620820).
att(cf_2028,2615195).
att(cf_2029,2621343).
att(cf_2030,2615195).
att(cf_2031,292608).
att(cf_2031,287723).
att(cf_2032,295389).
att(cf_2033,2615195).
att(cf_2034,287723).
att(cf_2035,868885).
att(cf_2035,862375).
att(cf_2036,2919892).
att(cf_2037,2615195).
att(cf_2038,2615195).
att(cf_2039,293436).
att(cf_2040,862375).
att(cf_2041,862375).
att(cf_2042,862375).
att(cf_2043,2615195).
att(cf_2044,2765498).
att(cf_2044,2765240).
att(cf_2045,3455).
att(cf_2045,1636).
att(cf_2046,287723).
att(cf_2047,2615195).
att(cf_2048,293548).
att(cf_2049,2033504).
att(cf_2050,2617376).
att(cf_2051,2919891).
att(cf_2052,288782).
att(cf_2052,287723).
att(cf_2053,294196).
att(cf_2054,295212).
att(cf_2055,867409).
att(cf_2055,862375).
att(cf_2056,862375).
att(cf_2057,2616192).
att(cf_2058,288218).
att(cf_2059,2033934).
att(cf_2060,863702).
att(cf_2061,862375).
att(cf_2062,2765492).
att(cf_2063,295108).
att(cf_2063,287723).
att(cf_2064,862375).
att(cf_2065,862375).
att(cf_2066,2615195).
att(cf_2067,2615195).
att(cf_2068,2615195).
att(cf_2069,862375).
att(cf_2070,293156).
att(cf_2070,287723).
att(cf_2071,2617554).
att(cf_2071,2615195).
att(cf_2072,862375).
att(cf_2073,2622578).
att(cf_2074,862375).
att(cf_2075,1542425).
att(cf_2076,2471893).
att(cf_2076,2472496).
att(cf_2077,2617817).
att(cf_2077,2615195).
att(cf_2078,862375).
att(cf_2079,2620185).
att(cf_2079,2615195).
att(cf_2080,2615195).
att(cf_2081,2620486).
att(cf_2081,2615195).
att(cf_2082,862375).
att(cf_2083,2919893).
att(cf_2083,2473431).
att(cf_2084,582131).
att(cf_2085,862375).
att(cf_2086,2471885).
att(cf_2087,864814).
att(cf_2087,862375).
att(cf_2088,865963).
att(cf_2088,862375).
att(cf_2089,2915600).
att(cf_2090,2617446).
att(cf_2090,2615195).
att(cf_2091,862375).
att(cf_2092,2622463).
att(cf_2093,862375).
att(cf_2094,862375).
att(cf_2095,294529).
att(cf_2096,867013).
att(cf_2096,863702).
att(cf_2097,2919891).
att(cf_2098,2615195).
att(cf_2099,862375).
att(cf_2100,862375).
att(cf_2101,294435).
att(cf_2102,2615195).
att(cf_2103,862375).
att(cf_2104,2615195).
att(cf_2105,2029964).
att(cf_2106,2615195).
att(cf_2106,2618265).
att(cf_2107,294295).
att(cf_2107,287723).
att(cf_2108,2034044).
att(cf_2109,864704).
att(cf_2109,862375).
att(cf_2110,862375).
att(cf_2111,2471885).
att(cf_2112,2622160).
att(cf_2113,862375).
att(cf_2114,2621712).
att(cf_2114,2615195).
att(cf_2115,287723).
att(cf_2116,2183229).
att(cf_2117,2615195).
att(cf_2118,2618647).
att(cf_2118,2615195).
att(cf_2119,291404).
att(cf_2120,862375).
att(cf_2121,293040).
att(cf_2122,2619459).
att(cf_2123,291440).
att(cf_2124,2915600).
att(cf_2125,862375).
att(cf_2126,862375).
att(cf_2127,2620587).
att(cf_2127,2615195).
att(cf_2128,862375).
att(cf_2129,2619439).
att(cf_2130,862375).
att(cf_2131,293925).
att(cf_2131,287723).
att(cf_2132,2621838).
att(cf_2132,2615195).
att(cf_2133,287723).
att(cf_2134,2179085).
att(cf_2135,2615195).
att(cf_2136,2915063).
att(cf_2137,862375).
att(cf_2138,862375).
att(cf_2139,291720).
att(cf_2139,287723).
att(cf_2140,2618626).
att(cf_2140,2615195).
att(cf_2141,2615195).
att(cf_2142,293059).
att(cf_2142,287723).
att(cf_2143,2182937).
att(cf_2144,2180711).
att(cf_2145,862375).
att(cf_2146,293112).
att(cf_2147,862375).
att(cf_2148,287723).
att(cf_2149,2620256).
att(cf_2150,290750).
att(cf_2151,862375).
att(cf_2152,2615195).
att(cf_2153,2615195).
att(cf_2154,294339).
att(cf_2155,293319).
att(cf_2156,287723).
att(cf_2157,865913).
att(cf_2157,862375).
att(cf_2158,2323524).
att(cf_2159,862375).
att(cf_2160,287723).
att(cf_2161,287723).
att(cf_2162,287723).
att(cf_2163,862375).
att(cf_2164,2615195).
att(cf_2165,291762).
att(cf_2166,869212).
att(cf_2166,2919896).
att(cf_2167,862375).
att(cf_2168,2619183).
att(cf_2168,2615195).
att(cf_2169,2619120).
att(cf_2169,2615195).
att(cf_2170,2623148).
att(cf_2170,2615195).
att(cf_2171,292536).
att(cf_2172,1543849).
att(cf_2173,2615195).
att(cf_2174,2618891).
att(cf_2174,2615195).
att(cf_2175,2615195).
att(cf_2176,867814).
att(cf_2176,862375).
att(cf_2177,2620749).
att(cf_2178,295147).
att(cf_2179,2622688).
att(cf_2179,2616555).
att(cf_2180,2471885).
att(cf_2180,2477563).
att(cf_2181,2615195).
att(cf_2182,862375).
att(cf_2183,869157).
att(cf_2183,862375).
att(cf_2184,2919896).
att(cf_2185,287723).
att(cf_2186,294659).
att(cf_2186,287723).
att(cf_2187,862375).
att(cf_2188,2615195).
att(cf_2189,2473613).
att(cf_2190,295272).
att(cf_2191,2620662).
att(cf_2192,2615195).
att(cf_2193,867877).
att(cf_2193,863702).
att(cf_2194,287723).
att(cf_2195,2616125).
att(cf_2195,2615195).
att(cf_2196,287723).
att(cf_2197,862375).
att(cf_2198,2620717).
att(cf_2199,2617394).
att(cf_2199,2615195).
att(cf_2200,294369).
att(cf_2200,287723).
att(cf_2201,862375).
att(cf_2202,2033795).
att(cf_2203,2034471).
att(cf_2204,2915600).
att(cf_2205,2617535).
att(cf_2206,287723).
att(cf_2207,865310).
att(cf_2207,862375).
att(cf_2208,293575).
att(cf_2208,287723).
att(cf_2209,863702).
att(cf_2210,293687).
att(cf_2211,862375).
att(cf_2212,867334).
att(cf_2212,862375).
att(cf_2213,287723).
att(cf_2214,862375).
att(cf_2215,2615195).
att(cf_2216,2615195).
att(cf_2217,2615195).
att(cf_2218,862375).
att(cf_2219,2029988).
att(cf_2219,2034327).
att(cf_2220,862375).
att(cf_2221,2618079).
att(cf_2221,2615195).
att(cf_2222,292900).
att(cf_2223,862375).
att(cf_2224,2913742).
att(cf_2225,2615195).
att(cf_2226,2919892).
att(cf_2227,2621865).
att(cf_2228,1636).
att(cf_2229,862375).
att(cf_2230,866490).
att(cf_2230,862375).
att(cf_2231,292172).
att(cf_2232,862375).
att(cf_2233,862375).
att(cf_2234,862375).
att(cf_2235,866529).
att(cf_2235,862375).
att(cf_2236,2623031).
att(cf_2237,862375).
att(cf_2238,287723).
att(cf_2239,862375).
att(cf_2240,862375).
att(cf_2241,2615195).
att(cf_2242,862375).
att(cf_2243,2621168).
att(cf_2244,290550).
att(cf_2245,4845).
att(cf_2246,293907).
att(cf_2247,293407).
att(cf_2248,291104).
att(cf_2249,2615195).
att(cf_2250,2029988).
att(cf_2250,2033363).
att(cf_2251,2621309).
att(cf_2251,2615195).
att(cf_2252,862375).
att(cf_2253,2914056).
att(cf_2254,2615195).
att(cf_2255,2029988).
att(cf_2255,2033982).
att(cf_2256,2615195).
att(cf_2257,862375).
att(cf_2258,287723).
att(cf_2259,292094).
att(cf_2259,287723).
att(cf_2260,868619).
att(cf_2260,862375).
att(cf_2261,584556).
att(cf_2262,2323524).
att(cf_2263,292590).
att(cf_2264,292715).
att(cf_2264,287723).
att(cf_2265,862375).
att(cf_2266,2036039).
att(cf_2267,580574).
att(cf_2267,579876).
att(cf_2268,290549).
att(cf_2269,287723).
att(cf_2270,291547).
att(cf_2270,287723).
att(cf_2271,290764).
att(cf_2271,287723).
att(cf_2272,287723).
att(cf_2273,579874).
att(cf_2273,579876).
att(cf_2274,2615195).
att(cf_2275,2619875).
att(cf_2276,2028846).
att(cf_2277,581434).
att(cf_2278,2615195).
att(cf_2279,2615195).
att(cf_2280,2621691).
att(cf_2280,2615195).
att(cf_2281,862375).
att(cf_2282,287723).
att(cf_2283,2035264).
att(cf_2284,866226).
att(cf_2284,862375).
att(cf_2285,862375).
att(cf_2286,293182).
att(cf_2287,2615195).
att(cf_2288,862375).
att(cf_2289,862375).
att(cf_2290,2615195).
att(cf_2291,2919896).
att(cf_2292,2913742).
att(cf_2293,724024).
att(cf_2294,291251).
att(cf_2295,862375).
att(cf_2296,287723).
att(cf_2297,2623040).
att(cf_2298,2620117).
att(cf_2299,862375).
att(cf_2300,2617586).
att(cf_2301,2031850).
att(cf_2302,293631).
att(cf_2302,287723).
att(cf_2303,2919895).
att(cf_2304,2615195).
att(cf_2305,862375).
att(cf_2306,2621390).
att(cf_2306,2615195).
att(cf_2307,291602).
att(cf_2308,9103).
att(cf_2309,2617376).
att(cf_2310,2029988).
att(cf_2310,2032678).
att(cf_2311,7688).
att(cf_2312,2621832).
att(cf_2313,2618448).
att(cf_2314,2618427).
att(cf_2314,2615195).
