cause((1984486,1667446,68012,1667458,2028598)).
cause((1984486,1667446,68012,1667458,1980311)).
cause((1984486,1667446,68012,1667458,1227799)).
cause((1984486,1667446,68012,1667458,1228160)).
cause((1984486,1667446,68012,1667458,1227943)).
cause((1984486,1667446,68012,1667458,1227803)).
cause((1984486,1667446,68012,1667458,983079)).
cause((1984486,1667446,68012,1667458,764655)).
cause((1984486,1667446,68012,1667458,598046)).
cause((1984486,1667446,68012,1667458,586179)).
cause((1984486,1667446,68012,1667458,86715)).
cause((1974972,1667446,68012,1667458,2028598)).
cause((1974972,1667446,68012,1667458,1980311)).
cause((1974972,1667446,68012,1667458,1227799)).
cause((1974972,1667446,68012,1667458,1228160)).
cause((1974972,1667446,68012,1667458,1227943)).
cause((1974972,1667446,68012,1667458,1227803)).
cause((1974972,1667446,68012,1667458,983079)).
cause((1974972,1667446,68012,1667458,764655)).
cause((1974972,1667446,68012,1667458,598046)).
cause((1974972,1667446,68012,1667458,586179)).
cause((1974972,1667446,68012,1667458,86715)).
cause((983073,1667446,68012,1667458,2028598)).
cause((983073,1667446,68012,1667458,1980311)).
cause((983073,1667446,68012,1667458,1227799)).
cause((983073,1667446,68012,1667458,1228160)).
cause((983073,1667446,68012,1667458,1227943)).
cause((983073,1667446,68012,1667458,1227803)).
cause((983073,1667446,68012,1667458,983079)).
cause((983073,1667446,68012,1667458,764655)).
cause((983073,1667446,68012,1667458,598046)).
cause((983073,1667446,68012,1667458,586179)).
cause((983073,1667446,68012,1667458,86715)).
cause((764984,1667446,68012,1667458,2028598)).
cause((764984,1667446,68012,1667458,1980311)).
cause((764984,1667446,68012,1667458,1227799)).
cause((764984,1667446,68012,1667458,1228160)).
cause((764984,1667446,68012,1667458,1227943)).
cause((764984,1667446,68012,1667458,1227803)).
cause((764984,1667446,68012,1667458,983079)).
cause((764984,1667446,68012,1667458,764655)).
cause((764984,1667446,68012,1667458,598046)).
cause((764984,1667446,68012,1667458,586179)).
cause((764984,1667446,68012,1667458,86715)).
cause((592528,1667446,68012,1667458,2028598)).
cause((592528,1667446,68012,1667458,1980311)).
cause((592528,1667446,68012,1667458,1227799)).
cause((592528,1667446,68012,1667458,1228160)).
cause((592528,1667446,68012,1667458,1227943)).
cause((592528,1667446,68012,1667458,1227803)).
cause((592528,1667446,68012,1667458,983079)).
cause((592528,1667446,68012,1667458,764655)).
cause((592528,1667446,68012,1667458,598046)).
cause((592528,1667446,68012,1667458,586179)).
cause((592528,1667446,68012,1667458,86715)).
cause((580619,1667446,68012,1667458,2028598)).
cause((580619,1667446,68012,1667458,1980311)).
cause((580619,1667446,68012,1667458,1227799)).
cause((580619,1667446,68012,1667458,1228160)).
cause((580619,1667446,68012,1667458,1227943)).
cause((580619,1667446,68012,1667458,1227803)).
cause((580619,1667446,68012,1667458,983079)).
cause((580619,1667446,68012,1667458,764655)).
cause((580619,1667446,68012,1667458,598046)).
cause((580619,1667446,68012,1667458,586179)).
cause((580619,1667446,68012,1667458,86715)).
cause((77298,1667446,68012,1667458,2028598)).
cause((77298,1667446,68012,1667458,1980311)).
cause((77298,1667446,68012,1667458,1227799)).
cause((77298,1667446,68012,1667458,1228160)).
cause((77298,1667446,68012,1667458,1227943)).
cause((77298,1667446,68012,1667458,1227803)).
cause((77298,1667446,68012,1667458,983079)).
cause((77298,1667446,68012,1667458,764655)).
cause((77298,1667446,68012,1667458,598046)).
cause((77298,1667446,68012,1667458,586179)).
cause((77298,1667446,68012,1667458,86715)).
inCause((1984486,1667446,68012,1667458,2028598), 2028598).
inCause((1984486,1667446,68012,1667458,2028598), 1667458).
inCause((1984486,1667446,68012,1667458,2028598), 68012).
inCause((1984486,1667446,68012,1667458,2028598), 1667446).
inCause((1984486,1667446,68012,1667458,2028598), 1984486).
inCause((1984486,1667446,68012,1667458,1980311), 1980311).
inCause((1984486,1667446,68012,1667458,1980311), 1667458).
inCause((1984486,1667446,68012,1667458,1980311), 68012).
inCause((1984486,1667446,68012,1667458,1980311), 1667446).
inCause((1984486,1667446,68012,1667458,1980311), 1984486).
inCause((1984486,1667446,68012,1667458,1227799), 1227799).
inCause((1984486,1667446,68012,1667458,1227799), 1667458).
inCause((1984486,1667446,68012,1667458,1227799), 68012).
inCause((1984486,1667446,68012,1667458,1227799), 1667446).
inCause((1984486,1667446,68012,1667458,1227799), 1984486).
inCause((1984486,1667446,68012,1667458,1228160), 1228160).
inCause((1984486,1667446,68012,1667458,1228160), 1667458).
inCause((1984486,1667446,68012,1667458,1228160), 68012).
inCause((1984486,1667446,68012,1667458,1228160), 1667446).
inCause((1984486,1667446,68012,1667458,1228160), 1984486).
inCause((1984486,1667446,68012,1667458,1227943), 1227943).
inCause((1984486,1667446,68012,1667458,1227943), 1667458).
inCause((1984486,1667446,68012,1667458,1227943), 68012).
inCause((1984486,1667446,68012,1667458,1227943), 1667446).
inCause((1984486,1667446,68012,1667458,1227943), 1984486).
inCause((1984486,1667446,68012,1667458,1227803), 1227803).
inCause((1984486,1667446,68012,1667458,1227803), 1667458).
inCause((1984486,1667446,68012,1667458,1227803), 68012).
inCause((1984486,1667446,68012,1667458,1227803), 1667446).
inCause((1984486,1667446,68012,1667458,1227803), 1984486).
inCause((1984486,1667446,68012,1667458,983079), 983079).
inCause((1984486,1667446,68012,1667458,983079), 1667458).
inCause((1984486,1667446,68012,1667458,983079), 68012).
inCause((1984486,1667446,68012,1667458,983079), 1667446).
inCause((1984486,1667446,68012,1667458,983079), 1984486).
inCause((1984486,1667446,68012,1667458,764655), 764655).
inCause((1984486,1667446,68012,1667458,764655), 1667458).
inCause((1984486,1667446,68012,1667458,764655), 68012).
inCause((1984486,1667446,68012,1667458,764655), 1667446).
inCause((1984486,1667446,68012,1667458,764655), 1984486).
inCause((1984486,1667446,68012,1667458,598046), 598046).
inCause((1984486,1667446,68012,1667458,598046), 1667458).
inCause((1984486,1667446,68012,1667458,598046), 68012).
inCause((1984486,1667446,68012,1667458,598046), 1667446).
inCause((1984486,1667446,68012,1667458,598046), 1984486).
inCause((1984486,1667446,68012,1667458,586179), 586179).
inCause((1984486,1667446,68012,1667458,586179), 1667458).
inCause((1984486,1667446,68012,1667458,586179), 68012).
inCause((1984486,1667446,68012,1667458,586179), 1667446).
inCause((1984486,1667446,68012,1667458,586179), 1984486).
inCause((1984486,1667446,68012,1667458,86715), 86715).
inCause((1984486,1667446,68012,1667458,86715), 1667458).
inCause((1984486,1667446,68012,1667458,86715), 68012).
inCause((1984486,1667446,68012,1667458,86715), 1667446).
inCause((1984486,1667446,68012,1667458,86715), 1984486).
inCause((1974972,1667446,68012,1667458,2028598), 2028598).
inCause((1974972,1667446,68012,1667458,2028598), 1667458).
inCause((1974972,1667446,68012,1667458,2028598), 68012).
inCause((1974972,1667446,68012,1667458,2028598), 1667446).
inCause((1974972,1667446,68012,1667458,2028598), 1974972).
inCause((1974972,1667446,68012,1667458,1980311), 1980311).
inCause((1974972,1667446,68012,1667458,1980311), 1667458).
inCause((1974972,1667446,68012,1667458,1980311), 68012).
inCause((1974972,1667446,68012,1667458,1980311), 1667446).
inCause((1974972,1667446,68012,1667458,1980311), 1974972).
inCause((1974972,1667446,68012,1667458,1227799), 1227799).
inCause((1974972,1667446,68012,1667458,1227799), 1667458).
inCause((1974972,1667446,68012,1667458,1227799), 68012).
inCause((1974972,1667446,68012,1667458,1227799), 1667446).
inCause((1974972,1667446,68012,1667458,1227799), 1974972).
inCause((1974972,1667446,68012,1667458,1228160), 1228160).
inCause((1974972,1667446,68012,1667458,1228160), 1667458).
inCause((1974972,1667446,68012,1667458,1228160), 68012).
inCause((1974972,1667446,68012,1667458,1228160), 1667446).
inCause((1974972,1667446,68012,1667458,1228160), 1974972).
inCause((1974972,1667446,68012,1667458,1227943), 1227943).
inCause((1974972,1667446,68012,1667458,1227943), 1667458).
inCause((1974972,1667446,68012,1667458,1227943), 68012).
inCause((1974972,1667446,68012,1667458,1227943), 1667446).
inCause((1974972,1667446,68012,1667458,1227943), 1974972).
inCause((1974972,1667446,68012,1667458,1227803), 1227803).
inCause((1974972,1667446,68012,1667458,1227803), 1667458).
inCause((1974972,1667446,68012,1667458,1227803), 68012).
inCause((1974972,1667446,68012,1667458,1227803), 1667446).
inCause((1974972,1667446,68012,1667458,1227803), 1974972).
inCause((1974972,1667446,68012,1667458,983079), 983079).
inCause((1974972,1667446,68012,1667458,983079), 1667458).
inCause((1974972,1667446,68012,1667458,983079), 68012).
inCause((1974972,1667446,68012,1667458,983079), 1667446).
inCause((1974972,1667446,68012,1667458,983079), 1974972).
inCause((1974972,1667446,68012,1667458,764655), 764655).
inCause((1974972,1667446,68012,1667458,764655), 1667458).
inCause((1974972,1667446,68012,1667458,764655), 68012).
inCause((1974972,1667446,68012,1667458,764655), 1667446).
inCause((1974972,1667446,68012,1667458,764655), 1974972).
inCause((1974972,1667446,68012,1667458,598046), 598046).
inCause((1974972,1667446,68012,1667458,598046), 1667458).
inCause((1974972,1667446,68012,1667458,598046), 68012).
inCause((1974972,1667446,68012,1667458,598046), 1667446).
inCause((1974972,1667446,68012,1667458,598046), 1974972).
inCause((1974972,1667446,68012,1667458,586179), 586179).
inCause((1974972,1667446,68012,1667458,586179), 1667458).
inCause((1974972,1667446,68012,1667458,586179), 68012).
inCause((1974972,1667446,68012,1667458,586179), 1667446).
inCause((1974972,1667446,68012,1667458,586179), 1974972).
inCause((1974972,1667446,68012,1667458,86715), 86715).
inCause((1974972,1667446,68012,1667458,86715), 1667458).
inCause((1974972,1667446,68012,1667458,86715), 68012).
inCause((1974972,1667446,68012,1667458,86715), 1667446).
inCause((1974972,1667446,68012,1667458,86715), 1974972).
inCause((983073,1667446,68012,1667458,2028598), 2028598).
inCause((983073,1667446,68012,1667458,2028598), 1667458).
inCause((983073,1667446,68012,1667458,2028598), 68012).
inCause((983073,1667446,68012,1667458,2028598), 1667446).
inCause((983073,1667446,68012,1667458,2028598), 983073).
inCause((983073,1667446,68012,1667458,1980311), 1980311).
inCause((983073,1667446,68012,1667458,1980311), 1667458).
inCause((983073,1667446,68012,1667458,1980311), 68012).
inCause((983073,1667446,68012,1667458,1980311), 1667446).
inCause((983073,1667446,68012,1667458,1980311), 983073).
inCause((983073,1667446,68012,1667458,1227799), 1227799).
inCause((983073,1667446,68012,1667458,1227799), 1667458).
inCause((983073,1667446,68012,1667458,1227799), 68012).
inCause((983073,1667446,68012,1667458,1227799), 1667446).
inCause((983073,1667446,68012,1667458,1227799), 983073).
inCause((983073,1667446,68012,1667458,1228160), 1228160).
inCause((983073,1667446,68012,1667458,1228160), 1667458).
inCause((983073,1667446,68012,1667458,1228160), 68012).
inCause((983073,1667446,68012,1667458,1228160), 1667446).
inCause((983073,1667446,68012,1667458,1228160), 983073).
inCause((983073,1667446,68012,1667458,1227943), 1227943).
inCause((983073,1667446,68012,1667458,1227943), 1667458).
inCause((983073,1667446,68012,1667458,1227943), 68012).
inCause((983073,1667446,68012,1667458,1227943), 1667446).
inCause((983073,1667446,68012,1667458,1227943), 983073).
inCause((983073,1667446,68012,1667458,1227803), 1227803).
inCause((983073,1667446,68012,1667458,1227803), 1667458).
inCause((983073,1667446,68012,1667458,1227803), 68012).
inCause((983073,1667446,68012,1667458,1227803), 1667446).
inCause((983073,1667446,68012,1667458,1227803), 983073).
inCause((983073,1667446,68012,1667458,983079), 983079).
inCause((983073,1667446,68012,1667458,983079), 1667458).
inCause((983073,1667446,68012,1667458,983079), 68012).
inCause((983073,1667446,68012,1667458,983079), 1667446).
inCause((983073,1667446,68012,1667458,983079), 983073).
inCause((983073,1667446,68012,1667458,764655), 764655).
inCause((983073,1667446,68012,1667458,764655), 1667458).
inCause((983073,1667446,68012,1667458,764655), 68012).
inCause((983073,1667446,68012,1667458,764655), 1667446).
inCause((983073,1667446,68012,1667458,764655), 983073).
inCause((983073,1667446,68012,1667458,598046), 598046).
inCause((983073,1667446,68012,1667458,598046), 1667458).
inCause((983073,1667446,68012,1667458,598046), 68012).
inCause((983073,1667446,68012,1667458,598046), 1667446).
inCause((983073,1667446,68012,1667458,598046), 983073).
inCause((983073,1667446,68012,1667458,586179), 586179).
inCause((983073,1667446,68012,1667458,586179), 1667458).
inCause((983073,1667446,68012,1667458,586179), 68012).
inCause((983073,1667446,68012,1667458,586179), 1667446).
inCause((983073,1667446,68012,1667458,586179), 983073).
inCause((983073,1667446,68012,1667458,86715), 86715).
inCause((983073,1667446,68012,1667458,86715), 1667458).
inCause((983073,1667446,68012,1667458,86715), 68012).
inCause((983073,1667446,68012,1667458,86715), 1667446).
inCause((983073,1667446,68012,1667458,86715), 983073).
inCause((764984,1667446,68012,1667458,2028598), 2028598).
inCause((764984,1667446,68012,1667458,2028598), 1667458).
inCause((764984,1667446,68012,1667458,2028598), 68012).
inCause((764984,1667446,68012,1667458,2028598), 1667446).
inCause((764984,1667446,68012,1667458,2028598), 764984).
inCause((764984,1667446,68012,1667458,1980311), 1980311).
inCause((764984,1667446,68012,1667458,1980311), 1667458).
inCause((764984,1667446,68012,1667458,1980311), 68012).
inCause((764984,1667446,68012,1667458,1980311), 1667446).
inCause((764984,1667446,68012,1667458,1980311), 764984).
inCause((764984,1667446,68012,1667458,1227799), 1227799).
inCause((764984,1667446,68012,1667458,1227799), 1667458).
inCause((764984,1667446,68012,1667458,1227799), 68012).
inCause((764984,1667446,68012,1667458,1227799), 1667446).
inCause((764984,1667446,68012,1667458,1227799), 764984).
inCause((764984,1667446,68012,1667458,1228160), 1228160).
inCause((764984,1667446,68012,1667458,1228160), 1667458).
inCause((764984,1667446,68012,1667458,1228160), 68012).
inCause((764984,1667446,68012,1667458,1228160), 1667446).
inCause((764984,1667446,68012,1667458,1228160), 764984).
inCause((764984,1667446,68012,1667458,1227943), 1227943).
inCause((764984,1667446,68012,1667458,1227943), 1667458).
inCause((764984,1667446,68012,1667458,1227943), 68012).
inCause((764984,1667446,68012,1667458,1227943), 1667446).
inCause((764984,1667446,68012,1667458,1227943), 764984).
inCause((764984,1667446,68012,1667458,1227803), 1227803).
inCause((764984,1667446,68012,1667458,1227803), 1667458).
inCause((764984,1667446,68012,1667458,1227803), 68012).
inCause((764984,1667446,68012,1667458,1227803), 1667446).
inCause((764984,1667446,68012,1667458,1227803), 764984).
inCause((764984,1667446,68012,1667458,983079), 983079).
inCause((764984,1667446,68012,1667458,983079), 1667458).
inCause((764984,1667446,68012,1667458,983079), 68012).
inCause((764984,1667446,68012,1667458,983079), 1667446).
inCause((764984,1667446,68012,1667458,983079), 764984).
inCause((764984,1667446,68012,1667458,764655), 764655).
inCause((764984,1667446,68012,1667458,764655), 1667458).
inCause((764984,1667446,68012,1667458,764655), 68012).
inCause((764984,1667446,68012,1667458,764655), 1667446).
inCause((764984,1667446,68012,1667458,764655), 764984).
inCause((764984,1667446,68012,1667458,598046), 598046).
inCause((764984,1667446,68012,1667458,598046), 1667458).
inCause((764984,1667446,68012,1667458,598046), 68012).
inCause((764984,1667446,68012,1667458,598046), 1667446).
inCause((764984,1667446,68012,1667458,598046), 764984).
inCause((764984,1667446,68012,1667458,586179), 586179).
inCause((764984,1667446,68012,1667458,586179), 1667458).
inCause((764984,1667446,68012,1667458,586179), 68012).
inCause((764984,1667446,68012,1667458,586179), 1667446).
inCause((764984,1667446,68012,1667458,586179), 764984).
inCause((764984,1667446,68012,1667458,86715), 86715).
inCause((764984,1667446,68012,1667458,86715), 1667458).
inCause((764984,1667446,68012,1667458,86715), 68012).
inCause((764984,1667446,68012,1667458,86715), 1667446).
inCause((764984,1667446,68012,1667458,86715), 764984).
inCause((592528,1667446,68012,1667458,2028598), 2028598).
inCause((592528,1667446,68012,1667458,2028598), 1667458).
inCause((592528,1667446,68012,1667458,2028598), 68012).
inCause((592528,1667446,68012,1667458,2028598), 1667446).
inCause((592528,1667446,68012,1667458,2028598), 592528).
inCause((592528,1667446,68012,1667458,1980311), 1980311).
inCause((592528,1667446,68012,1667458,1980311), 1667458).
inCause((592528,1667446,68012,1667458,1980311), 68012).
inCause((592528,1667446,68012,1667458,1980311), 1667446).
inCause((592528,1667446,68012,1667458,1980311), 592528).
inCause((592528,1667446,68012,1667458,1227799), 1227799).
inCause((592528,1667446,68012,1667458,1227799), 1667458).
inCause((592528,1667446,68012,1667458,1227799), 68012).
inCause((592528,1667446,68012,1667458,1227799), 1667446).
inCause((592528,1667446,68012,1667458,1227799), 592528).
inCause((592528,1667446,68012,1667458,1228160), 1228160).
inCause((592528,1667446,68012,1667458,1228160), 1667458).
inCause((592528,1667446,68012,1667458,1228160), 68012).
inCause((592528,1667446,68012,1667458,1228160), 1667446).
inCause((592528,1667446,68012,1667458,1228160), 592528).
inCause((592528,1667446,68012,1667458,1227943), 1227943).
inCause((592528,1667446,68012,1667458,1227943), 1667458).
inCause((592528,1667446,68012,1667458,1227943), 68012).
inCause((592528,1667446,68012,1667458,1227943), 1667446).
inCause((592528,1667446,68012,1667458,1227943), 592528).
inCause((592528,1667446,68012,1667458,1227803), 1227803).
inCause((592528,1667446,68012,1667458,1227803), 1667458).
inCause((592528,1667446,68012,1667458,1227803), 68012).
inCause((592528,1667446,68012,1667458,1227803), 1667446).
inCause((592528,1667446,68012,1667458,1227803), 592528).
inCause((592528,1667446,68012,1667458,983079), 983079).
inCause((592528,1667446,68012,1667458,983079), 1667458).
inCause((592528,1667446,68012,1667458,983079), 68012).
inCause((592528,1667446,68012,1667458,983079), 1667446).
inCause((592528,1667446,68012,1667458,983079), 592528).
inCause((592528,1667446,68012,1667458,764655), 764655).
inCause((592528,1667446,68012,1667458,764655), 1667458).
inCause((592528,1667446,68012,1667458,764655), 68012).
inCause((592528,1667446,68012,1667458,764655), 1667446).
inCause((592528,1667446,68012,1667458,764655), 592528).
inCause((592528,1667446,68012,1667458,598046), 598046).
inCause((592528,1667446,68012,1667458,598046), 1667458).
inCause((592528,1667446,68012,1667458,598046), 68012).
inCause((592528,1667446,68012,1667458,598046), 1667446).
inCause((592528,1667446,68012,1667458,598046), 592528).
inCause((592528,1667446,68012,1667458,586179), 586179).
inCause((592528,1667446,68012,1667458,586179), 1667458).
inCause((592528,1667446,68012,1667458,586179), 68012).
inCause((592528,1667446,68012,1667458,586179), 1667446).
inCause((592528,1667446,68012,1667458,586179), 592528).
inCause((592528,1667446,68012,1667458,86715), 86715).
inCause((592528,1667446,68012,1667458,86715), 1667458).
inCause((592528,1667446,68012,1667458,86715), 68012).
inCause((592528,1667446,68012,1667458,86715), 1667446).
inCause((592528,1667446,68012,1667458,86715), 592528).
inCause((580619,1667446,68012,1667458,2028598), 2028598).
inCause((580619,1667446,68012,1667458,2028598), 1667458).
inCause((580619,1667446,68012,1667458,2028598), 68012).
inCause((580619,1667446,68012,1667458,2028598), 1667446).
inCause((580619,1667446,68012,1667458,2028598), 580619).
inCause((580619,1667446,68012,1667458,1980311), 1980311).
inCause((580619,1667446,68012,1667458,1980311), 1667458).
inCause((580619,1667446,68012,1667458,1980311), 68012).
inCause((580619,1667446,68012,1667458,1980311), 1667446).
inCause((580619,1667446,68012,1667458,1980311), 580619).
inCause((580619,1667446,68012,1667458,1227799), 1227799).
inCause((580619,1667446,68012,1667458,1227799), 1667458).
inCause((580619,1667446,68012,1667458,1227799), 68012).
inCause((580619,1667446,68012,1667458,1227799), 1667446).
inCause((580619,1667446,68012,1667458,1227799), 580619).
inCause((580619,1667446,68012,1667458,1228160), 1228160).
inCause((580619,1667446,68012,1667458,1228160), 1667458).
inCause((580619,1667446,68012,1667458,1228160), 68012).
inCause((580619,1667446,68012,1667458,1228160), 1667446).
inCause((580619,1667446,68012,1667458,1228160), 580619).
inCause((580619,1667446,68012,1667458,1227943), 1227943).
inCause((580619,1667446,68012,1667458,1227943), 1667458).
inCause((580619,1667446,68012,1667458,1227943), 68012).
inCause((580619,1667446,68012,1667458,1227943), 1667446).
inCause((580619,1667446,68012,1667458,1227943), 580619).
inCause((580619,1667446,68012,1667458,1227803), 1227803).
inCause((580619,1667446,68012,1667458,1227803), 1667458).
inCause((580619,1667446,68012,1667458,1227803), 68012).
inCause((580619,1667446,68012,1667458,1227803), 1667446).
inCause((580619,1667446,68012,1667458,1227803), 580619).
inCause((580619,1667446,68012,1667458,983079), 983079).
inCause((580619,1667446,68012,1667458,983079), 1667458).
inCause((580619,1667446,68012,1667458,983079), 68012).
inCause((580619,1667446,68012,1667458,983079), 1667446).
inCause((580619,1667446,68012,1667458,983079), 580619).
inCause((580619,1667446,68012,1667458,764655), 764655).
inCause((580619,1667446,68012,1667458,764655), 1667458).
inCause((580619,1667446,68012,1667458,764655), 68012).
inCause((580619,1667446,68012,1667458,764655), 1667446).
inCause((580619,1667446,68012,1667458,764655), 580619).
inCause((580619,1667446,68012,1667458,598046), 598046).
inCause((580619,1667446,68012,1667458,598046), 1667458).
inCause((580619,1667446,68012,1667458,598046), 68012).
inCause((580619,1667446,68012,1667458,598046), 1667446).
inCause((580619,1667446,68012,1667458,598046), 580619).
inCause((580619,1667446,68012,1667458,586179), 586179).
inCause((580619,1667446,68012,1667458,586179), 1667458).
inCause((580619,1667446,68012,1667458,586179), 68012).
inCause((580619,1667446,68012,1667458,586179), 1667446).
inCause((580619,1667446,68012,1667458,586179), 580619).
inCause((580619,1667446,68012,1667458,86715), 86715).
inCause((580619,1667446,68012,1667458,86715), 1667458).
inCause((580619,1667446,68012,1667458,86715), 68012).
inCause((580619,1667446,68012,1667458,86715), 1667446).
inCause((580619,1667446,68012,1667458,86715), 580619).
inCause((77298,1667446,68012,1667458,2028598), 2028598).
inCause((77298,1667446,68012,1667458,2028598), 1667458).
inCause((77298,1667446,68012,1667458,2028598), 68012).
inCause((77298,1667446,68012,1667458,2028598), 1667446).
inCause((77298,1667446,68012,1667458,2028598), 77298).
inCause((77298,1667446,68012,1667458,1980311), 1980311).
inCause((77298,1667446,68012,1667458,1980311), 1667458).
inCause((77298,1667446,68012,1667458,1980311), 68012).
inCause((77298,1667446,68012,1667458,1980311), 1667446).
inCause((77298,1667446,68012,1667458,1980311), 77298).
inCause((77298,1667446,68012,1667458,1227799), 1227799).
inCause((77298,1667446,68012,1667458,1227799), 1667458).
inCause((77298,1667446,68012,1667458,1227799), 68012).
inCause((77298,1667446,68012,1667458,1227799), 1667446).
inCause((77298,1667446,68012,1667458,1227799), 77298).
inCause((77298,1667446,68012,1667458,1228160), 1228160).
inCause((77298,1667446,68012,1667458,1228160), 1667458).
inCause((77298,1667446,68012,1667458,1228160), 68012).
inCause((77298,1667446,68012,1667458,1228160), 1667446).
inCause((77298,1667446,68012,1667458,1228160), 77298).
inCause((77298,1667446,68012,1667458,1227943), 1227943).
inCause((77298,1667446,68012,1667458,1227943), 1667458).
inCause((77298,1667446,68012,1667458,1227943), 68012).
inCause((77298,1667446,68012,1667458,1227943), 1667446).
inCause((77298,1667446,68012,1667458,1227943), 77298).
inCause((77298,1667446,68012,1667458,1227803), 1227803).
inCause((77298,1667446,68012,1667458,1227803), 1667458).
inCause((77298,1667446,68012,1667458,1227803), 68012).
inCause((77298,1667446,68012,1667458,1227803), 1667446).
inCause((77298,1667446,68012,1667458,1227803), 77298).
inCause((77298,1667446,68012,1667458,983079), 983079).
inCause((77298,1667446,68012,1667458,983079), 1667458).
inCause((77298,1667446,68012,1667458,983079), 68012).
inCause((77298,1667446,68012,1667458,983079), 1667446).
inCause((77298,1667446,68012,1667458,983079), 77298).
inCause((77298,1667446,68012,1667458,764655), 764655).
inCause((77298,1667446,68012,1667458,764655), 1667458).
inCause((77298,1667446,68012,1667458,764655), 68012).
inCause((77298,1667446,68012,1667458,764655), 1667446).
inCause((77298,1667446,68012,1667458,764655), 77298).
inCause((77298,1667446,68012,1667458,598046), 598046).
inCause((77298,1667446,68012,1667458,598046), 1667458).
inCause((77298,1667446,68012,1667458,598046), 68012).
inCause((77298,1667446,68012,1667458,598046), 1667446).
inCause((77298,1667446,68012,1667458,598046), 77298).
inCause((77298,1667446,68012,1667458,586179), 586179).
inCause((77298,1667446,68012,1667458,586179), 1667458).
inCause((77298,1667446,68012,1667458,586179), 68012).
inCause((77298,1667446,68012,1667458,586179), 1667446).
inCause((77298,1667446,68012,1667458,586179), 77298).
inCause((77298,1667446,68012,1667458,86715), 86715).
inCause((77298,1667446,68012,1667458,86715), 1667458).
inCause((77298,1667446,68012,1667458,86715), 68012).
inCause((77298,1667446,68012,1667458,86715), 1667446).
inCause((77298,1667446,68012,1667458,86715), 77298).
