cause((1984486,1667446,68012,1667446,1984486)).
cause((1984486,1667445,58057,1667445,1984486)).
cause((1984486,1667446,68012,1667446,1974972)).
cause((1984486,1667445,58057,1667445,1974972)).
cause((1984486,1667446,68012,1667446,983073)).
cause((1984486,1667445,58057,1667445,983073)).
cause((1984486,1667446,68012,1667446,764984)).
cause((1984486,1667445,58057,1667445,764984)).
cause((1984486,1667446,68012,1667446,592528)).
cause((1984486,1667445,58057,1667445,592528)).
cause((1984486,1667446,68012,1667446,580619)).
cause((1984486,1667445,58057,1667445,580619)).
cause((1984486,1667446,68012,1667446,77298)).
cause((1984486,1667445,58057,1667445,77298)).
cause((1974972,1667446,68012,1667446,1984486)).
cause((1974972,1667445,58057,1667445,1984486)).
cause((1974972,1667446,68012,1667446,1974972)).
cause((1974972,1667445,58057,1667445,1974972)).
cause((1974972,1667446,68012,1667446,983073)).
cause((1974972,1667445,58057,1667445,983073)).
cause((1974972,1667446,68012,1667446,764984)).
cause((1974972,1667445,58057,1667445,764984)).
cause((1974972,1667446,68012,1667446,592528)).
cause((1974972,1667445,58057,1667445,592528)).
cause((1974972,1667446,68012,1667446,580619)).
cause((1974972,1667445,58057,1667445,580619)).
cause((1974972,1667446,68012,1667446,77298)).
cause((1974972,1667445,58057,1667445,77298)).
cause((983073,1667446,68012,1667446,1984486)).
cause((983073,1667445,58057,1667445,1984486)).
cause((983073,1667446,68012,1667446,1974972)).
cause((983073,1667445,58057,1667445,1974972)).
cause((983073,1667446,68012,1667446,983073)).
cause((983073,1667445,58057,1667445,983073)).
cause((983073,1667446,68012,1667446,764984)).
cause((983073,1667445,58057,1667445,764984)).
cause((983073,1667446,68012,1667446,592528)).
cause((983073,1667445,58057,1667445,592528)).
cause((983073,1667446,68012,1667446,580619)).
cause((983073,1667445,58057,1667445,580619)).
cause((983073,1667446,68012,1667446,77298)).
cause((983073,1667445,58057,1667445,77298)).
cause((764984,1667446,68012,1667446,1984486)).
cause((764984,1667445,58057,1667445,1984486)).
cause((764984,1667446,68012,1667446,1974972)).
cause((764984,1667445,58057,1667445,1974972)).
cause((764984,1667446,68012,1667446,983073)).
cause((764984,1667445,58057,1667445,983073)).
cause((764984,1667446,68012,1667446,764984)).
cause((764984,1667445,58057,1667445,764984)).
cause((764984,1667446,68012,1667446,592528)).
cause((764984,1667445,58057,1667445,592528)).
cause((764984,1667446,68012,1667446,580619)).
cause((764984,1667445,58057,1667445,580619)).
cause((764984,1667446,68012,1667446,77298)).
cause((764984,1667445,58057,1667445,77298)).
cause((592528,1667446,68012,1667446,1984486)).
cause((592528,1667445,58057,1667445,1984486)).
cause((592528,1667446,68012,1667446,1974972)).
cause((592528,1667445,58057,1667445,1974972)).
cause((592528,1667446,68012,1667446,983073)).
cause((592528,1667445,58057,1667445,983073)).
cause((592528,1667446,68012,1667446,764984)).
cause((592528,1667445,58057,1667445,764984)).
cause((592528,1667446,68012,1667446,592528)).
cause((592528,1667445,58057,1667445,592528)).
cause((592528,1667446,68012,1667446,580619)).
cause((592528,1667445,58057,1667445,580619)).
cause((592528,1667446,68012,1667446,77298)).
cause((592528,1667445,58057,1667445,77298)).
cause((580619,1667446,68012,1667446,1984486)).
cause((580619,1667445,58057,1667445,1984486)).
cause((580619,1667446,68012,1667446,1974972)).
cause((580619,1667445,58057,1667445,1974972)).
cause((580619,1667446,68012,1667446,983073)).
cause((580619,1667445,58057,1667445,983073)).
cause((580619,1667446,68012,1667446,764984)).
cause((580619,1667445,58057,1667445,764984)).
cause((580619,1667446,68012,1667446,592528)).
cause((580619,1667445,58057,1667445,592528)).
cause((580619,1667446,68012,1667446,580619)).
cause((580619,1667445,58057,1667445,580619)).
cause((580619,1667446,68012,1667446,77298)).
cause((580619,1667445,58057,1667445,77298)).
cause((77298,1667446,68012,1667446,1984486)).
cause((77298,1667445,58057,1667445,1984486)).
cause((77298,1667446,68012,1667446,1974972)).
cause((77298,1667445,58057,1667445,1974972)).
cause((77298,1667446,68012,1667446,983073)).
cause((77298,1667445,58057,1667445,983073)).
cause((77298,1667446,68012,1667446,764984)).
cause((77298,1667445,58057,1667445,764984)).
cause((77298,1667446,68012,1667446,592528)).
cause((77298,1667445,58057,1667445,592528)).
cause((77298,1667446,68012,1667446,580619)).
cause((77298,1667445,58057,1667445,580619)).
cause((77298,1667446,68012,1667446,77298)).
cause((77298,1667445,58057,1667445,77298)).
cause(77298).
inCause((1984486,1667446,68012,1667446,1984486), 1984486).
inCause((1984486,1667446,68012,1667446,1984486), 1667446).
inCause((1984486,1667446,68012,1667446,1984486), 68012).
inCause((1984486,1667445,58057,1667445,1984486), 1984486).
inCause((1984486,1667445,58057,1667445,1984486), 1667445).
inCause((1984486,1667445,58057,1667445,1984486), 58057).
inCause((1984486,1667446,68012,1667446,1974972), 1974972).
inCause((1984486,1667446,68012,1667446,1974972), 1667446).
inCause((1984486,1667446,68012,1667446,1974972), 68012).
inCause((1984486,1667446,68012,1667446,1974972), 1984486).
inCause((1984486,1667445,58057,1667445,1974972), 1974972).
inCause((1984486,1667445,58057,1667445,1974972), 1667445).
inCause((1984486,1667445,58057,1667445,1974972), 58057).
inCause((1984486,1667445,58057,1667445,1974972), 1984486).
inCause((1984486,1667446,68012,1667446,983073), 983073).
inCause((1984486,1667446,68012,1667446,983073), 1667446).
inCause((1984486,1667446,68012,1667446,983073), 68012).
inCause((1984486,1667446,68012,1667446,983073), 1984486).
inCause((1984486,1667445,58057,1667445,983073), 983073).
inCause((1984486,1667445,58057,1667445,983073), 1667445).
inCause((1984486,1667445,58057,1667445,983073), 58057).
inCause((1984486,1667445,58057,1667445,983073), 1984486).
inCause((1984486,1667446,68012,1667446,764984), 764984).
inCause((1984486,1667446,68012,1667446,764984), 1667446).
inCause((1984486,1667446,68012,1667446,764984), 68012).
inCause((1984486,1667446,68012,1667446,764984), 1984486).
inCause((1984486,1667445,58057,1667445,764984), 764984).
inCause((1984486,1667445,58057,1667445,764984), 1667445).
inCause((1984486,1667445,58057,1667445,764984), 58057).
inCause((1984486,1667445,58057,1667445,764984), 1984486).
inCause((1984486,1667446,68012,1667446,592528), 592528).
inCause((1984486,1667446,68012,1667446,592528), 1667446).
inCause((1984486,1667446,68012,1667446,592528), 68012).
inCause((1984486,1667446,68012,1667446,592528), 1984486).
inCause((1984486,1667445,58057,1667445,592528), 592528).
inCause((1984486,1667445,58057,1667445,592528), 1667445).
inCause((1984486,1667445,58057,1667445,592528), 58057).
inCause((1984486,1667445,58057,1667445,592528), 1984486).
inCause((1984486,1667446,68012,1667446,580619), 580619).
inCause((1984486,1667446,68012,1667446,580619), 1667446).
inCause((1984486,1667446,68012,1667446,580619), 68012).
inCause((1984486,1667446,68012,1667446,580619), 1984486).
inCause((1984486,1667445,58057,1667445,580619), 580619).
inCause((1984486,1667445,58057,1667445,580619), 1667445).
inCause((1984486,1667445,58057,1667445,580619), 58057).
inCause((1984486,1667445,58057,1667445,580619), 1984486).
inCause((1984486,1667446,68012,1667446,77298), 77298).
inCause((1984486,1667446,68012,1667446,77298), 1667446).
inCause((1984486,1667446,68012,1667446,77298), 68012).
inCause((1984486,1667446,68012,1667446,77298), 1984486).
inCause((1984486,1667445,58057,1667445,77298), 77298).
inCause((1984486,1667445,58057,1667445,77298), 1667445).
inCause((1984486,1667445,58057,1667445,77298), 58057).
inCause((1984486,1667445,58057,1667445,77298), 1984486).
inCause((1974972,1667446,68012,1667446,1984486), 1984486).
inCause((1974972,1667446,68012,1667446,1984486), 1667446).
inCause((1974972,1667446,68012,1667446,1984486), 68012).
inCause((1974972,1667446,68012,1667446,1984486), 1974972).
inCause((1974972,1667445,58057,1667445,1984486), 1984486).
inCause((1974972,1667445,58057,1667445,1984486), 1667445).
inCause((1974972,1667445,58057,1667445,1984486), 58057).
inCause((1974972,1667445,58057,1667445,1984486), 1974972).
inCause((1974972,1667446,68012,1667446,1974972), 1974972).
inCause((1974972,1667446,68012,1667446,1974972), 1667446).
inCause((1974972,1667446,68012,1667446,1974972), 68012).
inCause((1974972,1667445,58057,1667445,1974972), 1974972).
inCause((1974972,1667445,58057,1667445,1974972), 1667445).
inCause((1974972,1667445,58057,1667445,1974972), 58057).
inCause((1974972,1667446,68012,1667446,983073), 983073).
inCause((1974972,1667446,68012,1667446,983073), 1667446).
inCause((1974972,1667446,68012,1667446,983073), 68012).
inCause((1974972,1667446,68012,1667446,983073), 1974972).
inCause((1974972,1667445,58057,1667445,983073), 983073).
inCause((1974972,1667445,58057,1667445,983073), 1667445).
inCause((1974972,1667445,58057,1667445,983073), 58057).
inCause((1974972,1667445,58057,1667445,983073), 1974972).
inCause((1974972,1667446,68012,1667446,764984), 764984).
inCause((1974972,1667446,68012,1667446,764984), 1667446).
inCause((1974972,1667446,68012,1667446,764984), 68012).
inCause((1974972,1667446,68012,1667446,764984), 1974972).
inCause((1974972,1667445,58057,1667445,764984), 764984).
inCause((1974972,1667445,58057,1667445,764984), 1667445).
inCause((1974972,1667445,58057,1667445,764984), 58057).
inCause((1974972,1667445,58057,1667445,764984), 1974972).
inCause((1974972,1667446,68012,1667446,592528), 592528).
inCause((1974972,1667446,68012,1667446,592528), 1667446).
inCause((1974972,1667446,68012,1667446,592528), 68012).
inCause((1974972,1667446,68012,1667446,592528), 1974972).
inCause((1974972,1667445,58057,1667445,592528), 592528).
inCause((1974972,1667445,58057,1667445,592528), 1667445).
inCause((1974972,1667445,58057,1667445,592528), 58057).
inCause((1974972,1667445,58057,1667445,592528), 1974972).
inCause((1974972,1667446,68012,1667446,580619), 580619).
inCause((1974972,1667446,68012,1667446,580619), 1667446).
inCause((1974972,1667446,68012,1667446,580619), 68012).
inCause((1974972,1667446,68012,1667446,580619), 1974972).
inCause((1974972,1667445,58057,1667445,580619), 580619).
inCause((1974972,1667445,58057,1667445,580619), 1667445).
inCause((1974972,1667445,58057,1667445,580619), 58057).
inCause((1974972,1667445,58057,1667445,580619), 1974972).
inCause((1974972,1667446,68012,1667446,77298), 77298).
inCause((1974972,1667446,68012,1667446,77298), 1667446).
inCause((1974972,1667446,68012,1667446,77298), 68012).
inCause((1974972,1667446,68012,1667446,77298), 1974972).
inCause((1974972,1667445,58057,1667445,77298), 77298).
inCause((1974972,1667445,58057,1667445,77298), 1667445).
inCause((1974972,1667445,58057,1667445,77298), 58057).
inCause((1974972,1667445,58057,1667445,77298), 1974972).
inCause((983073,1667446,68012,1667446,1984486), 1984486).
inCause((983073,1667446,68012,1667446,1984486), 1667446).
inCause((983073,1667446,68012,1667446,1984486), 68012).
inCause((983073,1667446,68012,1667446,1984486), 983073).
inCause((983073,1667445,58057,1667445,1984486), 1984486).
inCause((983073,1667445,58057,1667445,1984486), 1667445).
inCause((983073,1667445,58057,1667445,1984486), 58057).
inCause((983073,1667445,58057,1667445,1984486), 983073).
inCause((983073,1667446,68012,1667446,1974972), 1974972).
inCause((983073,1667446,68012,1667446,1974972), 1667446).
inCause((983073,1667446,68012,1667446,1974972), 68012).
inCause((983073,1667446,68012,1667446,1974972), 983073).
inCause((983073,1667445,58057,1667445,1974972), 1974972).
inCause((983073,1667445,58057,1667445,1974972), 1667445).
inCause((983073,1667445,58057,1667445,1974972), 58057).
inCause((983073,1667445,58057,1667445,1974972), 983073).
inCause((983073,1667446,68012,1667446,983073), 983073).
inCause((983073,1667446,68012,1667446,983073), 1667446).
inCause((983073,1667446,68012,1667446,983073), 68012).
inCause((983073,1667445,58057,1667445,983073), 983073).
inCause((983073,1667445,58057,1667445,983073), 1667445).
inCause((983073,1667445,58057,1667445,983073), 58057).
inCause((983073,1667446,68012,1667446,764984), 764984).
inCause((983073,1667446,68012,1667446,764984), 1667446).
inCause((983073,1667446,68012,1667446,764984), 68012).
inCause((983073,1667446,68012,1667446,764984), 983073).
inCause((983073,1667445,58057,1667445,764984), 764984).
inCause((983073,1667445,58057,1667445,764984), 1667445).
inCause((983073,1667445,58057,1667445,764984), 58057).
inCause((983073,1667445,58057,1667445,764984), 983073).
inCause((983073,1667446,68012,1667446,592528), 592528).
inCause((983073,1667446,68012,1667446,592528), 1667446).
inCause((983073,1667446,68012,1667446,592528), 68012).
inCause((983073,1667446,68012,1667446,592528), 983073).
inCause((983073,1667445,58057,1667445,592528), 592528).
inCause((983073,1667445,58057,1667445,592528), 1667445).
inCause((983073,1667445,58057,1667445,592528), 58057).
inCause((983073,1667445,58057,1667445,592528), 983073).
inCause((983073,1667446,68012,1667446,580619), 580619).
inCause((983073,1667446,68012,1667446,580619), 1667446).
inCause((983073,1667446,68012,1667446,580619), 68012).
inCause((983073,1667446,68012,1667446,580619), 983073).
inCause((983073,1667445,58057,1667445,580619), 580619).
inCause((983073,1667445,58057,1667445,580619), 1667445).
inCause((983073,1667445,58057,1667445,580619), 58057).
inCause((983073,1667445,58057,1667445,580619), 983073).
inCause((983073,1667446,68012,1667446,77298), 77298).
inCause((983073,1667446,68012,1667446,77298), 1667446).
inCause((983073,1667446,68012,1667446,77298), 68012).
inCause((983073,1667446,68012,1667446,77298), 983073).
inCause((983073,1667445,58057,1667445,77298), 77298).
inCause((983073,1667445,58057,1667445,77298), 1667445).
inCause((983073,1667445,58057,1667445,77298), 58057).
inCause((983073,1667445,58057,1667445,77298), 983073).
inCause((764984,1667446,68012,1667446,1984486), 1984486).
inCause((764984,1667446,68012,1667446,1984486), 1667446).
inCause((764984,1667446,68012,1667446,1984486), 68012).
inCause((764984,1667446,68012,1667446,1984486), 764984).
inCause((764984,1667445,58057,1667445,1984486), 1984486).
inCause((764984,1667445,58057,1667445,1984486), 1667445).
inCause((764984,1667445,58057,1667445,1984486), 58057).
inCause((764984,1667445,58057,1667445,1984486), 764984).
inCause((764984,1667446,68012,1667446,1974972), 1974972).
inCause((764984,1667446,68012,1667446,1974972), 1667446).
inCause((764984,1667446,68012,1667446,1974972), 68012).
inCause((764984,1667446,68012,1667446,1974972), 764984).
inCause((764984,1667445,58057,1667445,1974972), 1974972).
inCause((764984,1667445,58057,1667445,1974972), 1667445).
inCause((764984,1667445,58057,1667445,1974972), 58057).
inCause((764984,1667445,58057,1667445,1974972), 764984).
inCause((764984,1667446,68012,1667446,983073), 983073).
inCause((764984,1667446,68012,1667446,983073), 1667446).
inCause((764984,1667446,68012,1667446,983073), 68012).
inCause((764984,1667446,68012,1667446,983073), 764984).
inCause((764984,1667445,58057,1667445,983073), 983073).
inCause((764984,1667445,58057,1667445,983073), 1667445).
inCause((764984,1667445,58057,1667445,983073), 58057).
inCause((764984,1667445,58057,1667445,983073), 764984).
inCause((764984,1667446,68012,1667446,764984), 764984).
inCause((764984,1667446,68012,1667446,764984), 1667446).
inCause((764984,1667446,68012,1667446,764984), 68012).
inCause((764984,1667445,58057,1667445,764984), 764984).
inCause((764984,1667445,58057,1667445,764984), 1667445).
inCause((764984,1667445,58057,1667445,764984), 58057).
inCause((764984,1667446,68012,1667446,592528), 592528).
inCause((764984,1667446,68012,1667446,592528), 1667446).
inCause((764984,1667446,68012,1667446,592528), 68012).
inCause((764984,1667446,68012,1667446,592528), 764984).
inCause((764984,1667445,58057,1667445,592528), 592528).
inCause((764984,1667445,58057,1667445,592528), 1667445).
inCause((764984,1667445,58057,1667445,592528), 58057).
inCause((764984,1667445,58057,1667445,592528), 764984).
inCause((764984,1667446,68012,1667446,580619), 580619).
inCause((764984,1667446,68012,1667446,580619), 1667446).
inCause((764984,1667446,68012,1667446,580619), 68012).
inCause((764984,1667446,68012,1667446,580619), 764984).
inCause((764984,1667445,58057,1667445,580619), 580619).
inCause((764984,1667445,58057,1667445,580619), 1667445).
inCause((764984,1667445,58057,1667445,580619), 58057).
inCause((764984,1667445,58057,1667445,580619), 764984).
inCause((764984,1667446,68012,1667446,77298), 77298).
inCause((764984,1667446,68012,1667446,77298), 1667446).
inCause((764984,1667446,68012,1667446,77298), 68012).
inCause((764984,1667446,68012,1667446,77298), 764984).
inCause((764984,1667445,58057,1667445,77298), 77298).
inCause((764984,1667445,58057,1667445,77298), 1667445).
inCause((764984,1667445,58057,1667445,77298), 58057).
inCause((764984,1667445,58057,1667445,77298), 764984).
inCause((592528,1667446,68012,1667446,1984486), 1984486).
inCause((592528,1667446,68012,1667446,1984486), 1667446).
inCause((592528,1667446,68012,1667446,1984486), 68012).
inCause((592528,1667446,68012,1667446,1984486), 592528).
inCause((592528,1667445,58057,1667445,1984486), 1984486).
inCause((592528,1667445,58057,1667445,1984486), 1667445).
inCause((592528,1667445,58057,1667445,1984486), 58057).
inCause((592528,1667445,58057,1667445,1984486), 592528).
inCause((592528,1667446,68012,1667446,1974972), 1974972).
inCause((592528,1667446,68012,1667446,1974972), 1667446).
inCause((592528,1667446,68012,1667446,1974972), 68012).
inCause((592528,1667446,68012,1667446,1974972), 592528).
inCause((592528,1667445,58057,1667445,1974972), 1974972).
inCause((592528,1667445,58057,1667445,1974972), 1667445).
inCause((592528,1667445,58057,1667445,1974972), 58057).
inCause((592528,1667445,58057,1667445,1974972), 592528).
inCause((592528,1667446,68012,1667446,983073), 983073).
inCause((592528,1667446,68012,1667446,983073), 1667446).
inCause((592528,1667446,68012,1667446,983073), 68012).
inCause((592528,1667446,68012,1667446,983073), 592528).
inCause((592528,1667445,58057,1667445,983073), 983073).
inCause((592528,1667445,58057,1667445,983073), 1667445).
inCause((592528,1667445,58057,1667445,983073), 58057).
inCause((592528,1667445,58057,1667445,983073), 592528).
inCause((592528,1667446,68012,1667446,764984), 764984).
inCause((592528,1667446,68012,1667446,764984), 1667446).
inCause((592528,1667446,68012,1667446,764984), 68012).
inCause((592528,1667446,68012,1667446,764984), 592528).
inCause((592528,1667445,58057,1667445,764984), 764984).
inCause((592528,1667445,58057,1667445,764984), 1667445).
inCause((592528,1667445,58057,1667445,764984), 58057).
inCause((592528,1667445,58057,1667445,764984), 592528).
inCause((592528,1667446,68012,1667446,592528), 592528).
inCause((592528,1667446,68012,1667446,592528), 1667446).
inCause((592528,1667446,68012,1667446,592528), 68012).
inCause((592528,1667445,58057,1667445,592528), 592528).
inCause((592528,1667445,58057,1667445,592528), 1667445).
inCause((592528,1667445,58057,1667445,592528), 58057).
inCause((592528,1667446,68012,1667446,580619), 580619).
inCause((592528,1667446,68012,1667446,580619), 1667446).
inCause((592528,1667446,68012,1667446,580619), 68012).
inCause((592528,1667446,68012,1667446,580619), 592528).
inCause((592528,1667445,58057,1667445,580619), 580619).
inCause((592528,1667445,58057,1667445,580619), 1667445).
inCause((592528,1667445,58057,1667445,580619), 58057).
inCause((592528,1667445,58057,1667445,580619), 592528).
inCause((592528,1667446,68012,1667446,77298), 77298).
inCause((592528,1667446,68012,1667446,77298), 1667446).
inCause((592528,1667446,68012,1667446,77298), 68012).
inCause((592528,1667446,68012,1667446,77298), 592528).
inCause((592528,1667445,58057,1667445,77298), 77298).
inCause((592528,1667445,58057,1667445,77298), 1667445).
inCause((592528,1667445,58057,1667445,77298), 58057).
inCause((592528,1667445,58057,1667445,77298), 592528).
inCause((580619,1667446,68012,1667446,1984486), 1984486).
inCause((580619,1667446,68012,1667446,1984486), 1667446).
inCause((580619,1667446,68012,1667446,1984486), 68012).
inCause((580619,1667446,68012,1667446,1984486), 580619).
inCause((580619,1667445,58057,1667445,1984486), 1984486).
inCause((580619,1667445,58057,1667445,1984486), 1667445).
inCause((580619,1667445,58057,1667445,1984486), 58057).
inCause((580619,1667445,58057,1667445,1984486), 580619).
inCause((580619,1667446,68012,1667446,1974972), 1974972).
inCause((580619,1667446,68012,1667446,1974972), 1667446).
inCause((580619,1667446,68012,1667446,1974972), 68012).
inCause((580619,1667446,68012,1667446,1974972), 580619).
inCause((580619,1667445,58057,1667445,1974972), 1974972).
inCause((580619,1667445,58057,1667445,1974972), 1667445).
inCause((580619,1667445,58057,1667445,1974972), 58057).
inCause((580619,1667445,58057,1667445,1974972), 580619).
inCause((580619,1667446,68012,1667446,983073), 983073).
inCause((580619,1667446,68012,1667446,983073), 1667446).
inCause((580619,1667446,68012,1667446,983073), 68012).
inCause((580619,1667446,68012,1667446,983073), 580619).
inCause((580619,1667445,58057,1667445,983073), 983073).
inCause((580619,1667445,58057,1667445,983073), 1667445).
inCause((580619,1667445,58057,1667445,983073), 58057).
inCause((580619,1667445,58057,1667445,983073), 580619).
inCause((580619,1667446,68012,1667446,764984), 764984).
inCause((580619,1667446,68012,1667446,764984), 1667446).
inCause((580619,1667446,68012,1667446,764984), 68012).
inCause((580619,1667446,68012,1667446,764984), 580619).
inCause((580619,1667445,58057,1667445,764984), 764984).
inCause((580619,1667445,58057,1667445,764984), 1667445).
inCause((580619,1667445,58057,1667445,764984), 58057).
inCause((580619,1667445,58057,1667445,764984), 580619).
inCause((580619,1667446,68012,1667446,592528), 592528).
inCause((580619,1667446,68012,1667446,592528), 1667446).
inCause((580619,1667446,68012,1667446,592528), 68012).
inCause((580619,1667446,68012,1667446,592528), 580619).
inCause((580619,1667445,58057,1667445,592528), 592528).
inCause((580619,1667445,58057,1667445,592528), 1667445).
inCause((580619,1667445,58057,1667445,592528), 58057).
inCause((580619,1667445,58057,1667445,592528), 580619).
inCause((580619,1667446,68012,1667446,580619), 580619).
inCause((580619,1667446,68012,1667446,580619), 1667446).
inCause((580619,1667446,68012,1667446,580619), 68012).
inCause((580619,1667445,58057,1667445,580619), 580619).
inCause((580619,1667445,58057,1667445,580619), 1667445).
inCause((580619,1667445,58057,1667445,580619), 58057).
inCause((580619,1667446,68012,1667446,77298), 77298).
inCause((580619,1667446,68012,1667446,77298), 1667446).
inCause((580619,1667446,68012,1667446,77298), 68012).
inCause((580619,1667446,68012,1667446,77298), 580619).
inCause((580619,1667445,58057,1667445,77298), 77298).
inCause((580619,1667445,58057,1667445,77298), 1667445).
inCause((580619,1667445,58057,1667445,77298), 58057).
inCause((580619,1667445,58057,1667445,77298), 580619).
inCause((77298,1667446,68012,1667446,1984486), 1984486).
inCause((77298,1667446,68012,1667446,1984486), 1667446).
inCause((77298,1667446,68012,1667446,1984486), 68012).
inCause((77298,1667446,68012,1667446,1984486), 77298).
inCause((77298,1667445,58057,1667445,1984486), 1984486).
inCause((77298,1667445,58057,1667445,1984486), 1667445).
inCause((77298,1667445,58057,1667445,1984486), 58057).
inCause((77298,1667445,58057,1667445,1984486), 77298).
inCause((77298,1667446,68012,1667446,1974972), 1974972).
inCause((77298,1667446,68012,1667446,1974972), 1667446).
inCause((77298,1667446,68012,1667446,1974972), 68012).
inCause((77298,1667446,68012,1667446,1974972), 77298).
inCause((77298,1667445,58057,1667445,1974972), 1974972).
inCause((77298,1667445,58057,1667445,1974972), 1667445).
inCause((77298,1667445,58057,1667445,1974972), 58057).
inCause((77298,1667445,58057,1667445,1974972), 77298).
inCause((77298,1667446,68012,1667446,983073), 983073).
inCause((77298,1667446,68012,1667446,983073), 1667446).
inCause((77298,1667446,68012,1667446,983073), 68012).
inCause((77298,1667446,68012,1667446,983073), 77298).
inCause((77298,1667445,58057,1667445,983073), 983073).
inCause((77298,1667445,58057,1667445,983073), 1667445).
inCause((77298,1667445,58057,1667445,983073), 58057).
inCause((77298,1667445,58057,1667445,983073), 77298).
inCause((77298,1667446,68012,1667446,764984), 764984).
inCause((77298,1667446,68012,1667446,764984), 1667446).
inCause((77298,1667446,68012,1667446,764984), 68012).
inCause((77298,1667446,68012,1667446,764984), 77298).
inCause((77298,1667445,58057,1667445,764984), 764984).
inCause((77298,1667445,58057,1667445,764984), 1667445).
inCause((77298,1667445,58057,1667445,764984), 58057).
inCause((77298,1667445,58057,1667445,764984), 77298).
inCause((77298,1667446,68012,1667446,592528), 592528).
inCause((77298,1667446,68012,1667446,592528), 1667446).
inCause((77298,1667446,68012,1667446,592528), 68012).
inCause((77298,1667446,68012,1667446,592528), 77298).
inCause((77298,1667445,58057,1667445,592528), 592528).
inCause((77298,1667445,58057,1667445,592528), 1667445).
inCause((77298,1667445,58057,1667445,592528), 58057).
inCause((77298,1667445,58057,1667445,592528), 77298).
inCause((77298,1667446,68012,1667446,580619), 580619).
inCause((77298,1667446,68012,1667446,580619), 1667446).
inCause((77298,1667446,68012,1667446,580619), 68012).
inCause((77298,1667446,68012,1667446,580619), 77298).
inCause((77298,1667445,58057,1667445,580619), 580619).
inCause((77298,1667445,58057,1667445,580619), 1667445).
inCause((77298,1667445,58057,1667445,580619), 58057).
inCause((77298,1667445,58057,1667445,580619), 77298).
inCause((77298,1667446,68012,1667446,77298), 77298).
inCause((77298,1667446,68012,1667446,77298), 1667446).
inCause((77298,1667446,68012,1667446,77298), 68012).
inCause((77298,1667445,58057,1667445,77298), 77298).
inCause((77298,1667445,58057,1667445,77298), 1667445).
inCause((77298,1667445,58057,1667445,77298), 58057).
inCause(77298, 77298).
