cause((1984486,1667446,68012,1667537,2007351)).
cause((1984486,1667446,68012,1667537,778185)).
cause((1984486,1667446,68012,1667537,588100)).
cause((1984486,1667446,68012,1667537,299897)).
cause((1984486,1667446,68012,1667537,100413)).
cause((1974972,1667446,68012,1667537,2007351)).
cause((1974972,1667446,68012,1667537,778185)).
cause((1974972,1667446,68012,1667537,588100)).
cause((1974972,1667446,68012,1667537,299897)).
cause((1974972,1667446,68012,1667537,100413)).
cause((983073,1667446,68012,1667537,2007351)).
cause((983073,1667446,68012,1667537,778185)).
cause((983073,1667446,68012,1667537,588100)).
cause((983073,1667446,68012,1667537,299897)).
cause((983073,1667446,68012,1667537,100413)).
cause((764984,1667446,68012,1667537,2007351)).
cause((764984,1667446,68012,1667537,778185)).
cause((764984,1667446,68012,1667537,588100)).
cause((764984,1667446,68012,1667537,299897)).
cause((764984,1667446,68012,1667537,100413)).
cause((592528,1667446,68012,1667537,2007351)).
cause((592528,1667446,68012,1667537,778185)).
cause((592528,1667446,68012,1667537,588100)).
cause((592528,1667446,68012,1667537,299897)).
cause((592528,1667446,68012,1667537,100413)).
cause((580619,1667446,68012,1667537,2007351)).
cause((580619,1667446,68012,1667537,778185)).
cause((580619,1667446,68012,1667537,588100)).
cause((580619,1667446,68012,1667537,299897)).
cause((580619,1667446,68012,1667537,100413)).
cause((77298,1667446,68012,1667537,2007351)).
cause((77298,1667446,68012,1667537,778185)).
cause((77298,1667446,68012,1667537,588100)).
cause((77298,1667446,68012,1667537,299897)).
cause((77298,1667446,68012,1667537,100413)).
inCause((1984486,1667446,68012,1667537,2007351), 2007351).
inCause((1984486,1667446,68012,1667537,2007351), 1667537).
inCause((1984486,1667446,68012,1667537,2007351), 68012).
inCause((1984486,1667446,68012,1667537,2007351), 1667446).
inCause((1984486,1667446,68012,1667537,2007351), 1984486).
inCause((1984486,1667446,68012,1667537,778185), 778185).
inCause((1984486,1667446,68012,1667537,778185), 1667537).
inCause((1984486,1667446,68012,1667537,778185), 68012).
inCause((1984486,1667446,68012,1667537,778185), 1667446).
inCause((1984486,1667446,68012,1667537,778185), 1984486).
inCause((1984486,1667446,68012,1667537,588100), 588100).
inCause((1984486,1667446,68012,1667537,588100), 1667537).
inCause((1984486,1667446,68012,1667537,588100), 68012).
inCause((1984486,1667446,68012,1667537,588100), 1667446).
inCause((1984486,1667446,68012,1667537,588100), 1984486).
inCause((1984486,1667446,68012,1667537,299897), 299897).
inCause((1984486,1667446,68012,1667537,299897), 1667537).
inCause((1984486,1667446,68012,1667537,299897), 68012).
inCause((1984486,1667446,68012,1667537,299897), 1667446).
inCause((1984486,1667446,68012,1667537,299897), 1984486).
inCause((1984486,1667446,68012,1667537,100413), 100413).
inCause((1984486,1667446,68012,1667537,100413), 1667537).
inCause((1984486,1667446,68012,1667537,100413), 68012).
inCause((1984486,1667446,68012,1667537,100413), 1667446).
inCause((1984486,1667446,68012,1667537,100413), 1984486).
inCause((1974972,1667446,68012,1667537,2007351), 2007351).
inCause((1974972,1667446,68012,1667537,2007351), 1667537).
inCause((1974972,1667446,68012,1667537,2007351), 68012).
inCause((1974972,1667446,68012,1667537,2007351), 1667446).
inCause((1974972,1667446,68012,1667537,2007351), 1974972).
inCause((1974972,1667446,68012,1667537,778185), 778185).
inCause((1974972,1667446,68012,1667537,778185), 1667537).
inCause((1974972,1667446,68012,1667537,778185), 68012).
inCause((1974972,1667446,68012,1667537,778185), 1667446).
inCause((1974972,1667446,68012,1667537,778185), 1974972).
inCause((1974972,1667446,68012,1667537,588100), 588100).
inCause((1974972,1667446,68012,1667537,588100), 1667537).
inCause((1974972,1667446,68012,1667537,588100), 68012).
inCause((1974972,1667446,68012,1667537,588100), 1667446).
inCause((1974972,1667446,68012,1667537,588100), 1974972).
inCause((1974972,1667446,68012,1667537,299897), 299897).
inCause((1974972,1667446,68012,1667537,299897), 1667537).
inCause((1974972,1667446,68012,1667537,299897), 68012).
inCause((1974972,1667446,68012,1667537,299897), 1667446).
inCause((1974972,1667446,68012,1667537,299897), 1974972).
inCause((1974972,1667446,68012,1667537,100413), 100413).
inCause((1974972,1667446,68012,1667537,100413), 1667537).
inCause((1974972,1667446,68012,1667537,100413), 68012).
inCause((1974972,1667446,68012,1667537,100413), 1667446).
inCause((1974972,1667446,68012,1667537,100413), 1974972).
inCause((983073,1667446,68012,1667537,2007351), 2007351).
inCause((983073,1667446,68012,1667537,2007351), 1667537).
inCause((983073,1667446,68012,1667537,2007351), 68012).
inCause((983073,1667446,68012,1667537,2007351), 1667446).
inCause((983073,1667446,68012,1667537,2007351), 983073).
inCause((983073,1667446,68012,1667537,778185), 778185).
inCause((983073,1667446,68012,1667537,778185), 1667537).
inCause((983073,1667446,68012,1667537,778185), 68012).
inCause((983073,1667446,68012,1667537,778185), 1667446).
inCause((983073,1667446,68012,1667537,778185), 983073).
inCause((983073,1667446,68012,1667537,588100), 588100).
inCause((983073,1667446,68012,1667537,588100), 1667537).
inCause((983073,1667446,68012,1667537,588100), 68012).
inCause((983073,1667446,68012,1667537,588100), 1667446).
inCause((983073,1667446,68012,1667537,588100), 983073).
inCause((983073,1667446,68012,1667537,299897), 299897).
inCause((983073,1667446,68012,1667537,299897), 1667537).
inCause((983073,1667446,68012,1667537,299897), 68012).
inCause((983073,1667446,68012,1667537,299897), 1667446).
inCause((983073,1667446,68012,1667537,299897), 983073).
inCause((983073,1667446,68012,1667537,100413), 100413).
inCause((983073,1667446,68012,1667537,100413), 1667537).
inCause((983073,1667446,68012,1667537,100413), 68012).
inCause((983073,1667446,68012,1667537,100413), 1667446).
inCause((983073,1667446,68012,1667537,100413), 983073).
inCause((764984,1667446,68012,1667537,2007351), 2007351).
inCause((764984,1667446,68012,1667537,2007351), 1667537).
inCause((764984,1667446,68012,1667537,2007351), 68012).
inCause((764984,1667446,68012,1667537,2007351), 1667446).
inCause((764984,1667446,68012,1667537,2007351), 764984).
inCause((764984,1667446,68012,1667537,778185), 778185).
inCause((764984,1667446,68012,1667537,778185), 1667537).
inCause((764984,1667446,68012,1667537,778185), 68012).
inCause((764984,1667446,68012,1667537,778185), 1667446).
inCause((764984,1667446,68012,1667537,778185), 764984).
inCause((764984,1667446,68012,1667537,588100), 588100).
inCause((764984,1667446,68012,1667537,588100), 1667537).
inCause((764984,1667446,68012,1667537,588100), 68012).
inCause((764984,1667446,68012,1667537,588100), 1667446).
inCause((764984,1667446,68012,1667537,588100), 764984).
inCause((764984,1667446,68012,1667537,299897), 299897).
inCause((764984,1667446,68012,1667537,299897), 1667537).
inCause((764984,1667446,68012,1667537,299897), 68012).
inCause((764984,1667446,68012,1667537,299897), 1667446).
inCause((764984,1667446,68012,1667537,299897), 764984).
inCause((764984,1667446,68012,1667537,100413), 100413).
inCause((764984,1667446,68012,1667537,100413), 1667537).
inCause((764984,1667446,68012,1667537,100413), 68012).
inCause((764984,1667446,68012,1667537,100413), 1667446).
inCause((764984,1667446,68012,1667537,100413), 764984).
inCause((592528,1667446,68012,1667537,2007351), 2007351).
inCause((592528,1667446,68012,1667537,2007351), 1667537).
inCause((592528,1667446,68012,1667537,2007351), 68012).
inCause((592528,1667446,68012,1667537,2007351), 1667446).
inCause((592528,1667446,68012,1667537,2007351), 592528).
inCause((592528,1667446,68012,1667537,778185), 778185).
inCause((592528,1667446,68012,1667537,778185), 1667537).
inCause((592528,1667446,68012,1667537,778185), 68012).
inCause((592528,1667446,68012,1667537,778185), 1667446).
inCause((592528,1667446,68012,1667537,778185), 592528).
inCause((592528,1667446,68012,1667537,588100), 588100).
inCause((592528,1667446,68012,1667537,588100), 1667537).
inCause((592528,1667446,68012,1667537,588100), 68012).
inCause((592528,1667446,68012,1667537,588100), 1667446).
inCause((592528,1667446,68012,1667537,588100), 592528).
inCause((592528,1667446,68012,1667537,299897), 299897).
inCause((592528,1667446,68012,1667537,299897), 1667537).
inCause((592528,1667446,68012,1667537,299897), 68012).
inCause((592528,1667446,68012,1667537,299897), 1667446).
inCause((592528,1667446,68012,1667537,299897), 592528).
inCause((592528,1667446,68012,1667537,100413), 100413).
inCause((592528,1667446,68012,1667537,100413), 1667537).
inCause((592528,1667446,68012,1667537,100413), 68012).
inCause((592528,1667446,68012,1667537,100413), 1667446).
inCause((592528,1667446,68012,1667537,100413), 592528).
inCause((580619,1667446,68012,1667537,2007351), 2007351).
inCause((580619,1667446,68012,1667537,2007351), 1667537).
inCause((580619,1667446,68012,1667537,2007351), 68012).
inCause((580619,1667446,68012,1667537,2007351), 1667446).
inCause((580619,1667446,68012,1667537,2007351), 580619).
inCause((580619,1667446,68012,1667537,778185), 778185).
inCause((580619,1667446,68012,1667537,778185), 1667537).
inCause((580619,1667446,68012,1667537,778185), 68012).
inCause((580619,1667446,68012,1667537,778185), 1667446).
inCause((580619,1667446,68012,1667537,778185), 580619).
inCause((580619,1667446,68012,1667537,588100), 588100).
inCause((580619,1667446,68012,1667537,588100), 1667537).
inCause((580619,1667446,68012,1667537,588100), 68012).
inCause((580619,1667446,68012,1667537,588100), 1667446).
inCause((580619,1667446,68012,1667537,588100), 580619).
inCause((580619,1667446,68012,1667537,299897), 299897).
inCause((580619,1667446,68012,1667537,299897), 1667537).
inCause((580619,1667446,68012,1667537,299897), 68012).
inCause((580619,1667446,68012,1667537,299897), 1667446).
inCause((580619,1667446,68012,1667537,299897), 580619).
inCause((580619,1667446,68012,1667537,100413), 100413).
inCause((580619,1667446,68012,1667537,100413), 1667537).
inCause((580619,1667446,68012,1667537,100413), 68012).
inCause((580619,1667446,68012,1667537,100413), 1667446).
inCause((580619,1667446,68012,1667537,100413), 580619).
inCause((77298,1667446,68012,1667537,2007351), 2007351).
inCause((77298,1667446,68012,1667537,2007351), 1667537).
inCause((77298,1667446,68012,1667537,2007351), 68012).
inCause((77298,1667446,68012,1667537,2007351), 1667446).
inCause((77298,1667446,68012,1667537,2007351), 77298).
inCause((77298,1667446,68012,1667537,778185), 778185).
inCause((77298,1667446,68012,1667537,778185), 1667537).
inCause((77298,1667446,68012,1667537,778185), 68012).
inCause((77298,1667446,68012,1667537,778185), 1667446).
inCause((77298,1667446,68012,1667537,778185), 77298).
inCause((77298,1667446,68012,1667537,588100), 588100).
inCause((77298,1667446,68012,1667537,588100), 1667537).
inCause((77298,1667446,68012,1667537,588100), 68012).
inCause((77298,1667446,68012,1667537,588100), 1667446).
inCause((77298,1667446,68012,1667537,588100), 77298).
inCause((77298,1667446,68012,1667537,299897), 299897).
inCause((77298,1667446,68012,1667537,299897), 1667537).
inCause((77298,1667446,68012,1667537,299897), 68012).
inCause((77298,1667446,68012,1667537,299897), 1667446).
inCause((77298,1667446,68012,1667537,299897), 77298).
inCause((77298,1667446,68012,1667537,100413), 100413).
inCause((77298,1667446,68012,1667537,100413), 1667537).
inCause((77298,1667446,68012,1667537,100413), 68012).
inCause((77298,1667446,68012,1667537,100413), 1667446).
inCause((77298,1667446,68012,1667537,100413), 77298).
