cause((1984486,1667445,58057,1667598,2001386)).
cause((1984486,1667445,58057,1667598,1228329)).
cause((1984486,1667445,58057,1667598,1227965)).
cause((1984486,1667445,58057,1667598,1228267)).
cause((1984486,1667445,58057,1667598,983151)).
cause((1984486,1667445,58057,1667598,769527)).
cause((1984486,1667445,58057,1667598,583434)).
cause((1984486,1667445,58057,1667598,106993)).
cause((1974972,1667445,58057,1667598,2001386)).
cause((1974972,1667445,58057,1667598,1228329)).
cause((1974972,1667445,58057,1667598,1227965)).
cause((1974972,1667445,58057,1667598,1228267)).
cause((1974972,1667445,58057,1667598,983151)).
cause((1974972,1667445,58057,1667598,769527)).
cause((1974972,1667445,58057,1667598,583434)).
cause((1974972,1667445,58057,1667598,106993)).
cause((983073,1667445,58057,1667598,2001386)).
cause((983073,1667445,58057,1667598,1228329)).
cause((983073,1667445,58057,1667598,1227965)).
cause((983073,1667445,58057,1667598,1228267)).
cause((983073,1667445,58057,1667598,983151)).
cause((983073,1667445,58057,1667598,769527)).
cause((983073,1667445,58057,1667598,583434)).
cause((983073,1667445,58057,1667598,106993)).
cause((764984,1667445,58057,1667598,2001386)).
cause((764984,1667445,58057,1667598,1228329)).
cause((764984,1667445,58057,1667598,1227965)).
cause((764984,1667445,58057,1667598,1228267)).
cause((764984,1667445,58057,1667598,983151)).
cause((764984,1667445,58057,1667598,769527)).
cause((764984,1667445,58057,1667598,583434)).
cause((764984,1667445,58057,1667598,106993)).
cause((592528,1667445,58057,1667598,2001386)).
cause((592528,1667445,58057,1667598,1228329)).
cause((592528,1667445,58057,1667598,1227965)).
cause((592528,1667445,58057,1667598,1228267)).
cause((592528,1667445,58057,1667598,983151)).
cause((592528,1667445,58057,1667598,769527)).
cause((592528,1667445,58057,1667598,583434)).
cause((592528,1667445,58057,1667598,106993)).
cause((580619,1667445,58057,1667598,2001386)).
cause((580619,1667445,58057,1667598,1228329)).
cause((580619,1667445,58057,1667598,1227965)).
cause((580619,1667445,58057,1667598,1228267)).
cause((580619,1667445,58057,1667598,983151)).
cause((580619,1667445,58057,1667598,769527)).
cause((580619,1667445,58057,1667598,583434)).
cause((580619,1667445,58057,1667598,106993)).
cause((77298,1667445,58057,1667598,2001386)).
cause((77298,1667445,58057,1667598,1228329)).
cause((77298,1667445,58057,1667598,1227965)).
cause((77298,1667445,58057,1667598,1228267)).
cause((77298,1667445,58057,1667598,983151)).
cause((77298,1667445,58057,1667598,769527)).
cause((77298,1667445,58057,1667598,583434)).
cause((77298,1667445,58057,1667598,106993)).
inCause((1984486,1667445,58057,1667598,2001386), 2001386).
inCause((1984486,1667445,58057,1667598,2001386), 1667598).
inCause((1984486,1667445,58057,1667598,2001386), 58057).
inCause((1984486,1667445,58057,1667598,2001386), 1667445).
inCause((1984486,1667445,58057,1667598,2001386), 1984486).
inCause((1984486,1667445,58057,1667598,1228329), 1228329).
inCause((1984486,1667445,58057,1667598,1228329), 1667598).
inCause((1984486,1667445,58057,1667598,1228329), 58057).
inCause((1984486,1667445,58057,1667598,1228329), 1667445).
inCause((1984486,1667445,58057,1667598,1228329), 1984486).
inCause((1984486,1667445,58057,1667598,1227965), 1227965).
inCause((1984486,1667445,58057,1667598,1227965), 1667598).
inCause((1984486,1667445,58057,1667598,1227965), 58057).
inCause((1984486,1667445,58057,1667598,1227965), 1667445).
inCause((1984486,1667445,58057,1667598,1227965), 1984486).
inCause((1984486,1667445,58057,1667598,1228267), 1228267).
inCause((1984486,1667445,58057,1667598,1228267), 1667598).
inCause((1984486,1667445,58057,1667598,1228267), 58057).
inCause((1984486,1667445,58057,1667598,1228267), 1667445).
inCause((1984486,1667445,58057,1667598,1228267), 1984486).
inCause((1984486,1667445,58057,1667598,983151), 983151).
inCause((1984486,1667445,58057,1667598,983151), 1667598).
inCause((1984486,1667445,58057,1667598,983151), 58057).
inCause((1984486,1667445,58057,1667598,983151), 1667445).
inCause((1984486,1667445,58057,1667598,983151), 1984486).
inCause((1984486,1667445,58057,1667598,769527), 769527).
inCause((1984486,1667445,58057,1667598,769527), 1667598).
inCause((1984486,1667445,58057,1667598,769527), 58057).
inCause((1984486,1667445,58057,1667598,769527), 1667445).
inCause((1984486,1667445,58057,1667598,769527), 1984486).
inCause((1984486,1667445,58057,1667598,583434), 583434).
inCause((1984486,1667445,58057,1667598,583434), 1667598).
inCause((1984486,1667445,58057,1667598,583434), 58057).
inCause((1984486,1667445,58057,1667598,583434), 1667445).
inCause((1984486,1667445,58057,1667598,583434), 1984486).
inCause((1984486,1667445,58057,1667598,106993), 106993).
inCause((1984486,1667445,58057,1667598,106993), 1667598).
inCause((1984486,1667445,58057,1667598,106993), 58057).
inCause((1984486,1667445,58057,1667598,106993), 1667445).
inCause((1984486,1667445,58057,1667598,106993), 1984486).
inCause((1974972,1667445,58057,1667598,2001386), 2001386).
inCause((1974972,1667445,58057,1667598,2001386), 1667598).
inCause((1974972,1667445,58057,1667598,2001386), 58057).
inCause((1974972,1667445,58057,1667598,2001386), 1667445).
inCause((1974972,1667445,58057,1667598,2001386), 1974972).
inCause((1974972,1667445,58057,1667598,1228329), 1228329).
inCause((1974972,1667445,58057,1667598,1228329), 1667598).
inCause((1974972,1667445,58057,1667598,1228329), 58057).
inCause((1974972,1667445,58057,1667598,1228329), 1667445).
inCause((1974972,1667445,58057,1667598,1228329), 1974972).
inCause((1974972,1667445,58057,1667598,1227965), 1227965).
inCause((1974972,1667445,58057,1667598,1227965), 1667598).
inCause((1974972,1667445,58057,1667598,1227965), 58057).
inCause((1974972,1667445,58057,1667598,1227965), 1667445).
inCause((1974972,1667445,58057,1667598,1227965), 1974972).
inCause((1974972,1667445,58057,1667598,1228267), 1228267).
inCause((1974972,1667445,58057,1667598,1228267), 1667598).
inCause((1974972,1667445,58057,1667598,1228267), 58057).
inCause((1974972,1667445,58057,1667598,1228267), 1667445).
inCause((1974972,1667445,58057,1667598,1228267), 1974972).
inCause((1974972,1667445,58057,1667598,983151), 983151).
inCause((1974972,1667445,58057,1667598,983151), 1667598).
inCause((1974972,1667445,58057,1667598,983151), 58057).
inCause((1974972,1667445,58057,1667598,983151), 1667445).
inCause((1974972,1667445,58057,1667598,983151), 1974972).
inCause((1974972,1667445,58057,1667598,769527), 769527).
inCause((1974972,1667445,58057,1667598,769527), 1667598).
inCause((1974972,1667445,58057,1667598,769527), 58057).
inCause((1974972,1667445,58057,1667598,769527), 1667445).
inCause((1974972,1667445,58057,1667598,769527), 1974972).
inCause((1974972,1667445,58057,1667598,583434), 583434).
inCause((1974972,1667445,58057,1667598,583434), 1667598).
inCause((1974972,1667445,58057,1667598,583434), 58057).
inCause((1974972,1667445,58057,1667598,583434), 1667445).
inCause((1974972,1667445,58057,1667598,583434), 1974972).
inCause((1974972,1667445,58057,1667598,106993), 106993).
inCause((1974972,1667445,58057,1667598,106993), 1667598).
inCause((1974972,1667445,58057,1667598,106993), 58057).
inCause((1974972,1667445,58057,1667598,106993), 1667445).
inCause((1974972,1667445,58057,1667598,106993), 1974972).
inCause((983073,1667445,58057,1667598,2001386), 2001386).
inCause((983073,1667445,58057,1667598,2001386), 1667598).
inCause((983073,1667445,58057,1667598,2001386), 58057).
inCause((983073,1667445,58057,1667598,2001386), 1667445).
inCause((983073,1667445,58057,1667598,2001386), 983073).
inCause((983073,1667445,58057,1667598,1228329), 1228329).
inCause((983073,1667445,58057,1667598,1228329), 1667598).
inCause((983073,1667445,58057,1667598,1228329), 58057).
inCause((983073,1667445,58057,1667598,1228329), 1667445).
inCause((983073,1667445,58057,1667598,1228329), 983073).
inCause((983073,1667445,58057,1667598,1227965), 1227965).
inCause((983073,1667445,58057,1667598,1227965), 1667598).
inCause((983073,1667445,58057,1667598,1227965), 58057).
inCause((983073,1667445,58057,1667598,1227965), 1667445).
inCause((983073,1667445,58057,1667598,1227965), 983073).
inCause((983073,1667445,58057,1667598,1228267), 1228267).
inCause((983073,1667445,58057,1667598,1228267), 1667598).
inCause((983073,1667445,58057,1667598,1228267), 58057).
inCause((983073,1667445,58057,1667598,1228267), 1667445).
inCause((983073,1667445,58057,1667598,1228267), 983073).
inCause((983073,1667445,58057,1667598,983151), 983151).
inCause((983073,1667445,58057,1667598,983151), 1667598).
inCause((983073,1667445,58057,1667598,983151), 58057).
inCause((983073,1667445,58057,1667598,983151), 1667445).
inCause((983073,1667445,58057,1667598,983151), 983073).
inCause((983073,1667445,58057,1667598,769527), 769527).
inCause((983073,1667445,58057,1667598,769527), 1667598).
inCause((983073,1667445,58057,1667598,769527), 58057).
inCause((983073,1667445,58057,1667598,769527), 1667445).
inCause((983073,1667445,58057,1667598,769527), 983073).
inCause((983073,1667445,58057,1667598,583434), 583434).
inCause((983073,1667445,58057,1667598,583434), 1667598).
inCause((983073,1667445,58057,1667598,583434), 58057).
inCause((983073,1667445,58057,1667598,583434), 1667445).
inCause((983073,1667445,58057,1667598,583434), 983073).
inCause((983073,1667445,58057,1667598,106993), 106993).
inCause((983073,1667445,58057,1667598,106993), 1667598).
inCause((983073,1667445,58057,1667598,106993), 58057).
inCause((983073,1667445,58057,1667598,106993), 1667445).
inCause((983073,1667445,58057,1667598,106993), 983073).
inCause((764984,1667445,58057,1667598,2001386), 2001386).
inCause((764984,1667445,58057,1667598,2001386), 1667598).
inCause((764984,1667445,58057,1667598,2001386), 58057).
inCause((764984,1667445,58057,1667598,2001386), 1667445).
inCause((764984,1667445,58057,1667598,2001386), 764984).
inCause((764984,1667445,58057,1667598,1228329), 1228329).
inCause((764984,1667445,58057,1667598,1228329), 1667598).
inCause((764984,1667445,58057,1667598,1228329), 58057).
inCause((764984,1667445,58057,1667598,1228329), 1667445).
inCause((764984,1667445,58057,1667598,1228329), 764984).
inCause((764984,1667445,58057,1667598,1227965), 1227965).
inCause((764984,1667445,58057,1667598,1227965), 1667598).
inCause((764984,1667445,58057,1667598,1227965), 58057).
inCause((764984,1667445,58057,1667598,1227965), 1667445).
inCause((764984,1667445,58057,1667598,1227965), 764984).
inCause((764984,1667445,58057,1667598,1228267), 1228267).
inCause((764984,1667445,58057,1667598,1228267), 1667598).
inCause((764984,1667445,58057,1667598,1228267), 58057).
inCause((764984,1667445,58057,1667598,1228267), 1667445).
inCause((764984,1667445,58057,1667598,1228267), 764984).
inCause((764984,1667445,58057,1667598,983151), 983151).
inCause((764984,1667445,58057,1667598,983151), 1667598).
inCause((764984,1667445,58057,1667598,983151), 58057).
inCause((764984,1667445,58057,1667598,983151), 1667445).
inCause((764984,1667445,58057,1667598,983151), 764984).
inCause((764984,1667445,58057,1667598,769527), 769527).
inCause((764984,1667445,58057,1667598,769527), 1667598).
inCause((764984,1667445,58057,1667598,769527), 58057).
inCause((764984,1667445,58057,1667598,769527), 1667445).
inCause((764984,1667445,58057,1667598,769527), 764984).
inCause((764984,1667445,58057,1667598,583434), 583434).
inCause((764984,1667445,58057,1667598,583434), 1667598).
inCause((764984,1667445,58057,1667598,583434), 58057).
inCause((764984,1667445,58057,1667598,583434), 1667445).
inCause((764984,1667445,58057,1667598,583434), 764984).
inCause((764984,1667445,58057,1667598,106993), 106993).
inCause((764984,1667445,58057,1667598,106993), 1667598).
inCause((764984,1667445,58057,1667598,106993), 58057).
inCause((764984,1667445,58057,1667598,106993), 1667445).
inCause((764984,1667445,58057,1667598,106993), 764984).
inCause((592528,1667445,58057,1667598,2001386), 2001386).
inCause((592528,1667445,58057,1667598,2001386), 1667598).
inCause((592528,1667445,58057,1667598,2001386), 58057).
inCause((592528,1667445,58057,1667598,2001386), 1667445).
inCause((592528,1667445,58057,1667598,2001386), 592528).
inCause((592528,1667445,58057,1667598,1228329), 1228329).
inCause((592528,1667445,58057,1667598,1228329), 1667598).
inCause((592528,1667445,58057,1667598,1228329), 58057).
inCause((592528,1667445,58057,1667598,1228329), 1667445).
inCause((592528,1667445,58057,1667598,1228329), 592528).
inCause((592528,1667445,58057,1667598,1227965), 1227965).
inCause((592528,1667445,58057,1667598,1227965), 1667598).
inCause((592528,1667445,58057,1667598,1227965), 58057).
inCause((592528,1667445,58057,1667598,1227965), 1667445).
inCause((592528,1667445,58057,1667598,1227965), 592528).
inCause((592528,1667445,58057,1667598,1228267), 1228267).
inCause((592528,1667445,58057,1667598,1228267), 1667598).
inCause((592528,1667445,58057,1667598,1228267), 58057).
inCause((592528,1667445,58057,1667598,1228267), 1667445).
inCause((592528,1667445,58057,1667598,1228267), 592528).
inCause((592528,1667445,58057,1667598,983151), 983151).
inCause((592528,1667445,58057,1667598,983151), 1667598).
inCause((592528,1667445,58057,1667598,983151), 58057).
inCause((592528,1667445,58057,1667598,983151), 1667445).
inCause((592528,1667445,58057,1667598,983151), 592528).
inCause((592528,1667445,58057,1667598,769527), 769527).
inCause((592528,1667445,58057,1667598,769527), 1667598).
inCause((592528,1667445,58057,1667598,769527), 58057).
inCause((592528,1667445,58057,1667598,769527), 1667445).
inCause((592528,1667445,58057,1667598,769527), 592528).
inCause((592528,1667445,58057,1667598,583434), 583434).
inCause((592528,1667445,58057,1667598,583434), 1667598).
inCause((592528,1667445,58057,1667598,583434), 58057).
inCause((592528,1667445,58057,1667598,583434), 1667445).
inCause((592528,1667445,58057,1667598,583434), 592528).
inCause((592528,1667445,58057,1667598,106993), 106993).
inCause((592528,1667445,58057,1667598,106993), 1667598).
inCause((592528,1667445,58057,1667598,106993), 58057).
inCause((592528,1667445,58057,1667598,106993), 1667445).
inCause((592528,1667445,58057,1667598,106993), 592528).
inCause((580619,1667445,58057,1667598,2001386), 2001386).
inCause((580619,1667445,58057,1667598,2001386), 1667598).
inCause((580619,1667445,58057,1667598,2001386), 58057).
inCause((580619,1667445,58057,1667598,2001386), 1667445).
inCause((580619,1667445,58057,1667598,2001386), 580619).
inCause((580619,1667445,58057,1667598,1228329), 1228329).
inCause((580619,1667445,58057,1667598,1228329), 1667598).
inCause((580619,1667445,58057,1667598,1228329), 58057).
inCause((580619,1667445,58057,1667598,1228329), 1667445).
inCause((580619,1667445,58057,1667598,1228329), 580619).
inCause((580619,1667445,58057,1667598,1227965), 1227965).
inCause((580619,1667445,58057,1667598,1227965), 1667598).
inCause((580619,1667445,58057,1667598,1227965), 58057).
inCause((580619,1667445,58057,1667598,1227965), 1667445).
inCause((580619,1667445,58057,1667598,1227965), 580619).
inCause((580619,1667445,58057,1667598,1228267), 1228267).
inCause((580619,1667445,58057,1667598,1228267), 1667598).
inCause((580619,1667445,58057,1667598,1228267), 58057).
inCause((580619,1667445,58057,1667598,1228267), 1667445).
inCause((580619,1667445,58057,1667598,1228267), 580619).
inCause((580619,1667445,58057,1667598,983151), 983151).
inCause((580619,1667445,58057,1667598,983151), 1667598).
inCause((580619,1667445,58057,1667598,983151), 58057).
inCause((580619,1667445,58057,1667598,983151), 1667445).
inCause((580619,1667445,58057,1667598,983151), 580619).
inCause((580619,1667445,58057,1667598,769527), 769527).
inCause((580619,1667445,58057,1667598,769527), 1667598).
inCause((580619,1667445,58057,1667598,769527), 58057).
inCause((580619,1667445,58057,1667598,769527), 1667445).
inCause((580619,1667445,58057,1667598,769527), 580619).
inCause((580619,1667445,58057,1667598,583434), 583434).
inCause((580619,1667445,58057,1667598,583434), 1667598).
inCause((580619,1667445,58057,1667598,583434), 58057).
inCause((580619,1667445,58057,1667598,583434), 1667445).
inCause((580619,1667445,58057,1667598,583434), 580619).
inCause((580619,1667445,58057,1667598,106993), 106993).
inCause((580619,1667445,58057,1667598,106993), 1667598).
inCause((580619,1667445,58057,1667598,106993), 58057).
inCause((580619,1667445,58057,1667598,106993), 1667445).
inCause((580619,1667445,58057,1667598,106993), 580619).
inCause((77298,1667445,58057,1667598,2001386), 2001386).
inCause((77298,1667445,58057,1667598,2001386), 1667598).
inCause((77298,1667445,58057,1667598,2001386), 58057).
inCause((77298,1667445,58057,1667598,2001386), 1667445).
inCause((77298,1667445,58057,1667598,2001386), 77298).
inCause((77298,1667445,58057,1667598,1228329), 1228329).
inCause((77298,1667445,58057,1667598,1228329), 1667598).
inCause((77298,1667445,58057,1667598,1228329), 58057).
inCause((77298,1667445,58057,1667598,1228329), 1667445).
inCause((77298,1667445,58057,1667598,1228329), 77298).
inCause((77298,1667445,58057,1667598,1227965), 1227965).
inCause((77298,1667445,58057,1667598,1227965), 1667598).
inCause((77298,1667445,58057,1667598,1227965), 58057).
inCause((77298,1667445,58057,1667598,1227965), 1667445).
inCause((77298,1667445,58057,1667598,1227965), 77298).
inCause((77298,1667445,58057,1667598,1228267), 1228267).
inCause((77298,1667445,58057,1667598,1228267), 1667598).
inCause((77298,1667445,58057,1667598,1228267), 58057).
inCause((77298,1667445,58057,1667598,1228267), 1667445).
inCause((77298,1667445,58057,1667598,1228267), 77298).
inCause((77298,1667445,58057,1667598,983151), 983151).
inCause((77298,1667445,58057,1667598,983151), 1667598).
inCause((77298,1667445,58057,1667598,983151), 58057).
inCause((77298,1667445,58057,1667598,983151), 1667445).
inCause((77298,1667445,58057,1667598,983151), 77298).
inCause((77298,1667445,58057,1667598,769527), 769527).
inCause((77298,1667445,58057,1667598,769527), 1667598).
inCause((77298,1667445,58057,1667598,769527), 58057).
inCause((77298,1667445,58057,1667598,769527), 1667445).
inCause((77298,1667445,58057,1667598,769527), 77298).
inCause((77298,1667445,58057,1667598,583434), 583434).
inCause((77298,1667445,58057,1667598,583434), 1667598).
inCause((77298,1667445,58057,1667598,583434), 58057).
inCause((77298,1667445,58057,1667598,583434), 1667445).
inCause((77298,1667445,58057,1667598,583434), 77298).
inCause((77298,1667445,58057,1667598,106993), 106993).
inCause((77298,1667445,58057,1667598,106993), 1667598).
inCause((77298,1667445,58057,1667598,106993), 58057).
inCause((77298,1667445,58057,1667598,106993), 1667445).
inCause((77298,1667445,58057,1667598,106993), 77298).
