cause((1984486,1667446,68012,1667480,2016546)).
cause((1984486,1667446,68012,1667480,1228458)).
cause((1984486,1667446,68012,1667480,1228480)).
cause((1984486,1667446,68012,1667480,1228213)).
cause((1984486,1667446,68012,1667480,983089)).
cause((1984486,1667446,68012,1667480,819187)).
cause((1984486,1667446,68012,1667480,587881)).
cause((1984486,1667446,68012,1667480,81655)).
cause((1974972,1667446,68012,1667480,2016546)).
cause((1974972,1667446,68012,1667480,1228458)).
cause((1974972,1667446,68012,1667480,1228480)).
cause((1974972,1667446,68012,1667480,1228213)).
cause((1974972,1667446,68012,1667480,983089)).
cause((1974972,1667446,68012,1667480,819187)).
cause((1974972,1667446,68012,1667480,587881)).
cause((1974972,1667446,68012,1667480,81655)).
cause((983073,1667446,68012,1667480,2016546)).
cause((983073,1667446,68012,1667480,1228458)).
cause((983073,1667446,68012,1667480,1228480)).
cause((983073,1667446,68012,1667480,1228213)).
cause((983073,1667446,68012,1667480,983089)).
cause((983073,1667446,68012,1667480,819187)).
cause((983073,1667446,68012,1667480,587881)).
cause((983073,1667446,68012,1667480,81655)).
cause((764984,1667446,68012,1667480,2016546)).
cause((764984,1667446,68012,1667480,1228458)).
cause((764984,1667446,68012,1667480,1228480)).
cause((764984,1667446,68012,1667480,1228213)).
cause((764984,1667446,68012,1667480,983089)).
cause((764984,1667446,68012,1667480,819187)).
cause((764984,1667446,68012,1667480,587881)).
cause((764984,1667446,68012,1667480,81655)).
cause((592528,1667446,68012,1667480,2016546)).
cause((592528,1667446,68012,1667480,1228458)).
cause((592528,1667446,68012,1667480,1228480)).
cause((592528,1667446,68012,1667480,1228213)).
cause((592528,1667446,68012,1667480,983089)).
cause((592528,1667446,68012,1667480,819187)).
cause((592528,1667446,68012,1667480,587881)).
cause((592528,1667446,68012,1667480,81655)).
cause((580619,1667446,68012,1667480,2016546)).
cause((580619,1667446,68012,1667480,1228458)).
cause((580619,1667446,68012,1667480,1228480)).
cause((580619,1667446,68012,1667480,1228213)).
cause((580619,1667446,68012,1667480,983089)).
cause((580619,1667446,68012,1667480,819187)).
cause((580619,1667446,68012,1667480,587881)).
cause((580619,1667446,68012,1667480,81655)).
cause((77298,1667446,68012,1667480,2016546)).
cause((77298,1667446,68012,1667480,1228458)).
cause((77298,1667446,68012,1667480,1228480)).
cause((77298,1667446,68012,1667480,1228213)).
cause((77298,1667446,68012,1667480,983089)).
cause((77298,1667446,68012,1667480,819187)).
cause((77298,1667446,68012,1667480,587881)).
cause((77298,1667446,68012,1667480,81655)).
inCause((1984486,1667446,68012,1667480,2016546), 2016546).
inCause((1984486,1667446,68012,1667480,2016546), 1667480).
inCause((1984486,1667446,68012,1667480,2016546), 68012).
inCause((1984486,1667446,68012,1667480,2016546), 1667446).
inCause((1984486,1667446,68012,1667480,2016546), 1984486).
inCause((1984486,1667446,68012,1667480,1228458), 1228458).
inCause((1984486,1667446,68012,1667480,1228458), 1667480).
inCause((1984486,1667446,68012,1667480,1228458), 68012).
inCause((1984486,1667446,68012,1667480,1228458), 1667446).
inCause((1984486,1667446,68012,1667480,1228458), 1984486).
inCause((1984486,1667446,68012,1667480,1228480), 1228480).
inCause((1984486,1667446,68012,1667480,1228480), 1667480).
inCause((1984486,1667446,68012,1667480,1228480), 68012).
inCause((1984486,1667446,68012,1667480,1228480), 1667446).
inCause((1984486,1667446,68012,1667480,1228480), 1984486).
inCause((1984486,1667446,68012,1667480,1228213), 1228213).
inCause((1984486,1667446,68012,1667480,1228213), 1667480).
inCause((1984486,1667446,68012,1667480,1228213), 68012).
inCause((1984486,1667446,68012,1667480,1228213), 1667446).
inCause((1984486,1667446,68012,1667480,1228213), 1984486).
inCause((1984486,1667446,68012,1667480,983089), 983089).
inCause((1984486,1667446,68012,1667480,983089), 1667480).
inCause((1984486,1667446,68012,1667480,983089), 68012).
inCause((1984486,1667446,68012,1667480,983089), 1667446).
inCause((1984486,1667446,68012,1667480,983089), 1984486).
inCause((1984486,1667446,68012,1667480,819187), 819187).
inCause((1984486,1667446,68012,1667480,819187), 1667480).
inCause((1984486,1667446,68012,1667480,819187), 68012).
inCause((1984486,1667446,68012,1667480,819187), 1667446).
inCause((1984486,1667446,68012,1667480,819187), 1984486).
inCause((1984486,1667446,68012,1667480,587881), 587881).
inCause((1984486,1667446,68012,1667480,587881), 1667480).
inCause((1984486,1667446,68012,1667480,587881), 68012).
inCause((1984486,1667446,68012,1667480,587881), 1667446).
inCause((1984486,1667446,68012,1667480,587881), 1984486).
inCause((1984486,1667446,68012,1667480,81655), 81655).
inCause((1984486,1667446,68012,1667480,81655), 1667480).
inCause((1984486,1667446,68012,1667480,81655), 68012).
inCause((1984486,1667446,68012,1667480,81655), 1667446).
inCause((1984486,1667446,68012,1667480,81655), 1984486).
inCause((1974972,1667446,68012,1667480,2016546), 2016546).
inCause((1974972,1667446,68012,1667480,2016546), 1667480).
inCause((1974972,1667446,68012,1667480,2016546), 68012).
inCause((1974972,1667446,68012,1667480,2016546), 1667446).
inCause((1974972,1667446,68012,1667480,2016546), 1974972).
inCause((1974972,1667446,68012,1667480,1228458), 1228458).
inCause((1974972,1667446,68012,1667480,1228458), 1667480).
inCause((1974972,1667446,68012,1667480,1228458), 68012).
inCause((1974972,1667446,68012,1667480,1228458), 1667446).
inCause((1974972,1667446,68012,1667480,1228458), 1974972).
inCause((1974972,1667446,68012,1667480,1228480), 1228480).
inCause((1974972,1667446,68012,1667480,1228480), 1667480).
inCause((1974972,1667446,68012,1667480,1228480), 68012).
inCause((1974972,1667446,68012,1667480,1228480), 1667446).
inCause((1974972,1667446,68012,1667480,1228480), 1974972).
inCause((1974972,1667446,68012,1667480,1228213), 1228213).
inCause((1974972,1667446,68012,1667480,1228213), 1667480).
inCause((1974972,1667446,68012,1667480,1228213), 68012).
inCause((1974972,1667446,68012,1667480,1228213), 1667446).
inCause((1974972,1667446,68012,1667480,1228213), 1974972).
inCause((1974972,1667446,68012,1667480,983089), 983089).
inCause((1974972,1667446,68012,1667480,983089), 1667480).
inCause((1974972,1667446,68012,1667480,983089), 68012).
inCause((1974972,1667446,68012,1667480,983089), 1667446).
inCause((1974972,1667446,68012,1667480,983089), 1974972).
inCause((1974972,1667446,68012,1667480,819187), 819187).
inCause((1974972,1667446,68012,1667480,819187), 1667480).
inCause((1974972,1667446,68012,1667480,819187), 68012).
inCause((1974972,1667446,68012,1667480,819187), 1667446).
inCause((1974972,1667446,68012,1667480,819187), 1974972).
inCause((1974972,1667446,68012,1667480,587881), 587881).
inCause((1974972,1667446,68012,1667480,587881), 1667480).
inCause((1974972,1667446,68012,1667480,587881), 68012).
inCause((1974972,1667446,68012,1667480,587881), 1667446).
inCause((1974972,1667446,68012,1667480,587881), 1974972).
inCause((1974972,1667446,68012,1667480,81655), 81655).
inCause((1974972,1667446,68012,1667480,81655), 1667480).
inCause((1974972,1667446,68012,1667480,81655), 68012).
inCause((1974972,1667446,68012,1667480,81655), 1667446).
inCause((1974972,1667446,68012,1667480,81655), 1974972).
inCause((983073,1667446,68012,1667480,2016546), 2016546).
inCause((983073,1667446,68012,1667480,2016546), 1667480).
inCause((983073,1667446,68012,1667480,2016546), 68012).
inCause((983073,1667446,68012,1667480,2016546), 1667446).
inCause((983073,1667446,68012,1667480,2016546), 983073).
inCause((983073,1667446,68012,1667480,1228458), 1228458).
inCause((983073,1667446,68012,1667480,1228458), 1667480).
inCause((983073,1667446,68012,1667480,1228458), 68012).
inCause((983073,1667446,68012,1667480,1228458), 1667446).
inCause((983073,1667446,68012,1667480,1228458), 983073).
inCause((983073,1667446,68012,1667480,1228480), 1228480).
inCause((983073,1667446,68012,1667480,1228480), 1667480).
inCause((983073,1667446,68012,1667480,1228480), 68012).
inCause((983073,1667446,68012,1667480,1228480), 1667446).
inCause((983073,1667446,68012,1667480,1228480), 983073).
inCause((983073,1667446,68012,1667480,1228213), 1228213).
inCause((983073,1667446,68012,1667480,1228213), 1667480).
inCause((983073,1667446,68012,1667480,1228213), 68012).
inCause((983073,1667446,68012,1667480,1228213), 1667446).
inCause((983073,1667446,68012,1667480,1228213), 983073).
inCause((983073,1667446,68012,1667480,983089), 983089).
inCause((983073,1667446,68012,1667480,983089), 1667480).
inCause((983073,1667446,68012,1667480,983089), 68012).
inCause((983073,1667446,68012,1667480,983089), 1667446).
inCause((983073,1667446,68012,1667480,983089), 983073).
inCause((983073,1667446,68012,1667480,819187), 819187).
inCause((983073,1667446,68012,1667480,819187), 1667480).
inCause((983073,1667446,68012,1667480,819187), 68012).
inCause((983073,1667446,68012,1667480,819187), 1667446).
inCause((983073,1667446,68012,1667480,819187), 983073).
inCause((983073,1667446,68012,1667480,587881), 587881).
inCause((983073,1667446,68012,1667480,587881), 1667480).
inCause((983073,1667446,68012,1667480,587881), 68012).
inCause((983073,1667446,68012,1667480,587881), 1667446).
inCause((983073,1667446,68012,1667480,587881), 983073).
inCause((983073,1667446,68012,1667480,81655), 81655).
inCause((983073,1667446,68012,1667480,81655), 1667480).
inCause((983073,1667446,68012,1667480,81655), 68012).
inCause((983073,1667446,68012,1667480,81655), 1667446).
inCause((983073,1667446,68012,1667480,81655), 983073).
inCause((764984,1667446,68012,1667480,2016546), 2016546).
inCause((764984,1667446,68012,1667480,2016546), 1667480).
inCause((764984,1667446,68012,1667480,2016546), 68012).
inCause((764984,1667446,68012,1667480,2016546), 1667446).
inCause((764984,1667446,68012,1667480,2016546), 764984).
inCause((764984,1667446,68012,1667480,1228458), 1228458).
inCause((764984,1667446,68012,1667480,1228458), 1667480).
inCause((764984,1667446,68012,1667480,1228458), 68012).
inCause((764984,1667446,68012,1667480,1228458), 1667446).
inCause((764984,1667446,68012,1667480,1228458), 764984).
inCause((764984,1667446,68012,1667480,1228480), 1228480).
inCause((764984,1667446,68012,1667480,1228480), 1667480).
inCause((764984,1667446,68012,1667480,1228480), 68012).
inCause((764984,1667446,68012,1667480,1228480), 1667446).
inCause((764984,1667446,68012,1667480,1228480), 764984).
inCause((764984,1667446,68012,1667480,1228213), 1228213).
inCause((764984,1667446,68012,1667480,1228213), 1667480).
inCause((764984,1667446,68012,1667480,1228213), 68012).
inCause((764984,1667446,68012,1667480,1228213), 1667446).
inCause((764984,1667446,68012,1667480,1228213), 764984).
inCause((764984,1667446,68012,1667480,983089), 983089).
inCause((764984,1667446,68012,1667480,983089), 1667480).
inCause((764984,1667446,68012,1667480,983089), 68012).
inCause((764984,1667446,68012,1667480,983089), 1667446).
inCause((764984,1667446,68012,1667480,983089), 764984).
inCause((764984,1667446,68012,1667480,819187), 819187).
inCause((764984,1667446,68012,1667480,819187), 1667480).
inCause((764984,1667446,68012,1667480,819187), 68012).
inCause((764984,1667446,68012,1667480,819187), 1667446).
inCause((764984,1667446,68012,1667480,819187), 764984).
inCause((764984,1667446,68012,1667480,587881), 587881).
inCause((764984,1667446,68012,1667480,587881), 1667480).
inCause((764984,1667446,68012,1667480,587881), 68012).
inCause((764984,1667446,68012,1667480,587881), 1667446).
inCause((764984,1667446,68012,1667480,587881), 764984).
inCause((764984,1667446,68012,1667480,81655), 81655).
inCause((764984,1667446,68012,1667480,81655), 1667480).
inCause((764984,1667446,68012,1667480,81655), 68012).
inCause((764984,1667446,68012,1667480,81655), 1667446).
inCause((764984,1667446,68012,1667480,81655), 764984).
inCause((592528,1667446,68012,1667480,2016546), 2016546).
inCause((592528,1667446,68012,1667480,2016546), 1667480).
inCause((592528,1667446,68012,1667480,2016546), 68012).
inCause((592528,1667446,68012,1667480,2016546), 1667446).
inCause((592528,1667446,68012,1667480,2016546), 592528).
inCause((592528,1667446,68012,1667480,1228458), 1228458).
inCause((592528,1667446,68012,1667480,1228458), 1667480).
inCause((592528,1667446,68012,1667480,1228458), 68012).
inCause((592528,1667446,68012,1667480,1228458), 1667446).
inCause((592528,1667446,68012,1667480,1228458), 592528).
inCause((592528,1667446,68012,1667480,1228480), 1228480).
inCause((592528,1667446,68012,1667480,1228480), 1667480).
inCause((592528,1667446,68012,1667480,1228480), 68012).
inCause((592528,1667446,68012,1667480,1228480), 1667446).
inCause((592528,1667446,68012,1667480,1228480), 592528).
inCause((592528,1667446,68012,1667480,1228213), 1228213).
inCause((592528,1667446,68012,1667480,1228213), 1667480).
inCause((592528,1667446,68012,1667480,1228213), 68012).
inCause((592528,1667446,68012,1667480,1228213), 1667446).
inCause((592528,1667446,68012,1667480,1228213), 592528).
inCause((592528,1667446,68012,1667480,983089), 983089).
inCause((592528,1667446,68012,1667480,983089), 1667480).
inCause((592528,1667446,68012,1667480,983089), 68012).
inCause((592528,1667446,68012,1667480,983089), 1667446).
inCause((592528,1667446,68012,1667480,983089), 592528).
inCause((592528,1667446,68012,1667480,819187), 819187).
inCause((592528,1667446,68012,1667480,819187), 1667480).
inCause((592528,1667446,68012,1667480,819187), 68012).
inCause((592528,1667446,68012,1667480,819187), 1667446).
inCause((592528,1667446,68012,1667480,819187), 592528).
inCause((592528,1667446,68012,1667480,587881), 587881).
inCause((592528,1667446,68012,1667480,587881), 1667480).
inCause((592528,1667446,68012,1667480,587881), 68012).
inCause((592528,1667446,68012,1667480,587881), 1667446).
inCause((592528,1667446,68012,1667480,587881), 592528).
inCause((592528,1667446,68012,1667480,81655), 81655).
inCause((592528,1667446,68012,1667480,81655), 1667480).
inCause((592528,1667446,68012,1667480,81655), 68012).
inCause((592528,1667446,68012,1667480,81655), 1667446).
inCause((592528,1667446,68012,1667480,81655), 592528).
inCause((580619,1667446,68012,1667480,2016546), 2016546).
inCause((580619,1667446,68012,1667480,2016546), 1667480).
inCause((580619,1667446,68012,1667480,2016546), 68012).
inCause((580619,1667446,68012,1667480,2016546), 1667446).
inCause((580619,1667446,68012,1667480,2016546), 580619).
inCause((580619,1667446,68012,1667480,1228458), 1228458).
inCause((580619,1667446,68012,1667480,1228458), 1667480).
inCause((580619,1667446,68012,1667480,1228458), 68012).
inCause((580619,1667446,68012,1667480,1228458), 1667446).
inCause((580619,1667446,68012,1667480,1228458), 580619).
inCause((580619,1667446,68012,1667480,1228480), 1228480).
inCause((580619,1667446,68012,1667480,1228480), 1667480).
inCause((580619,1667446,68012,1667480,1228480), 68012).
inCause((580619,1667446,68012,1667480,1228480), 1667446).
inCause((580619,1667446,68012,1667480,1228480), 580619).
inCause((580619,1667446,68012,1667480,1228213), 1228213).
inCause((580619,1667446,68012,1667480,1228213), 1667480).
inCause((580619,1667446,68012,1667480,1228213), 68012).
inCause((580619,1667446,68012,1667480,1228213), 1667446).
inCause((580619,1667446,68012,1667480,1228213), 580619).
inCause((580619,1667446,68012,1667480,983089), 983089).
inCause((580619,1667446,68012,1667480,983089), 1667480).
inCause((580619,1667446,68012,1667480,983089), 68012).
inCause((580619,1667446,68012,1667480,983089), 1667446).
inCause((580619,1667446,68012,1667480,983089), 580619).
inCause((580619,1667446,68012,1667480,819187), 819187).
inCause((580619,1667446,68012,1667480,819187), 1667480).
inCause((580619,1667446,68012,1667480,819187), 68012).
inCause((580619,1667446,68012,1667480,819187), 1667446).
inCause((580619,1667446,68012,1667480,819187), 580619).
inCause((580619,1667446,68012,1667480,587881), 587881).
inCause((580619,1667446,68012,1667480,587881), 1667480).
inCause((580619,1667446,68012,1667480,587881), 68012).
inCause((580619,1667446,68012,1667480,587881), 1667446).
inCause((580619,1667446,68012,1667480,587881), 580619).
inCause((580619,1667446,68012,1667480,81655), 81655).
inCause((580619,1667446,68012,1667480,81655), 1667480).
inCause((580619,1667446,68012,1667480,81655), 68012).
inCause((580619,1667446,68012,1667480,81655), 1667446).
inCause((580619,1667446,68012,1667480,81655), 580619).
inCause((77298,1667446,68012,1667480,2016546), 2016546).
inCause((77298,1667446,68012,1667480,2016546), 1667480).
inCause((77298,1667446,68012,1667480,2016546), 68012).
inCause((77298,1667446,68012,1667480,2016546), 1667446).
inCause((77298,1667446,68012,1667480,2016546), 77298).
inCause((77298,1667446,68012,1667480,1228458), 1228458).
inCause((77298,1667446,68012,1667480,1228458), 1667480).
inCause((77298,1667446,68012,1667480,1228458), 68012).
inCause((77298,1667446,68012,1667480,1228458), 1667446).
inCause((77298,1667446,68012,1667480,1228458), 77298).
inCause((77298,1667446,68012,1667480,1228480), 1228480).
inCause((77298,1667446,68012,1667480,1228480), 1667480).
inCause((77298,1667446,68012,1667480,1228480), 68012).
inCause((77298,1667446,68012,1667480,1228480), 1667446).
inCause((77298,1667446,68012,1667480,1228480), 77298).
inCause((77298,1667446,68012,1667480,1228213), 1228213).
inCause((77298,1667446,68012,1667480,1228213), 1667480).
inCause((77298,1667446,68012,1667480,1228213), 68012).
inCause((77298,1667446,68012,1667480,1228213), 1667446).
inCause((77298,1667446,68012,1667480,1228213), 77298).
inCause((77298,1667446,68012,1667480,983089), 983089).
inCause((77298,1667446,68012,1667480,983089), 1667480).
inCause((77298,1667446,68012,1667480,983089), 68012).
inCause((77298,1667446,68012,1667480,983089), 1667446).
inCause((77298,1667446,68012,1667480,983089), 77298).
inCause((77298,1667446,68012,1667480,819187), 819187).
inCause((77298,1667446,68012,1667480,819187), 1667480).
inCause((77298,1667446,68012,1667480,819187), 68012).
inCause((77298,1667446,68012,1667480,819187), 1667446).
inCause((77298,1667446,68012,1667480,819187), 77298).
inCause((77298,1667446,68012,1667480,587881), 587881).
inCause((77298,1667446,68012,1667480,587881), 1667480).
inCause((77298,1667446,68012,1667480,587881), 68012).
inCause((77298,1667446,68012,1667480,587881), 1667446).
inCause((77298,1667446,68012,1667480,587881), 77298).
inCause((77298,1667446,68012,1667480,81655), 81655).
inCause((77298,1667446,68012,1667480,81655), 1667480).
inCause((77298,1667446,68012,1667480,81655), 68012).
inCause((77298,1667446,68012,1667480,81655), 1667446).
inCause((77298,1667446,68012,1667480,81655), 77298).
