cause((1984486,1667445,58057,1667563,2003163)).
cause((1984486,1667445,58057,1667563,1227988)).
cause((1984486,1667445,58057,1667563,1228164)).
cause((1984486,1667445,58057,1667563,1228099)).
cause((1984486,1667445,58057,1667563,1227970)).
cause((1984486,1667445,58057,1667563,983129)).
cause((1984486,1667445,58057,1667563,790083)).
cause((1984486,1667445,58057,1667563,587352)).
cause((1984486,1667445,58057,1667563,98830)).
cause((1974972,1667445,58057,1667563,2003163)).
cause((1974972,1667445,58057,1667563,1227988)).
cause((1974972,1667445,58057,1667563,1228164)).
cause((1974972,1667445,58057,1667563,1228099)).
cause((1974972,1667445,58057,1667563,1227970)).
cause((1974972,1667445,58057,1667563,983129)).
cause((1974972,1667445,58057,1667563,790083)).
cause((1974972,1667445,58057,1667563,587352)).
cause((1974972,1667445,58057,1667563,98830)).
cause((983073,1667445,58057,1667563,2003163)).
cause((983073,1667445,58057,1667563,1227988)).
cause((983073,1667445,58057,1667563,1228164)).
cause((983073,1667445,58057,1667563,1228099)).
cause((983073,1667445,58057,1667563,1227970)).
cause((983073,1667445,58057,1667563,983129)).
cause((983073,1667445,58057,1667563,790083)).
cause((983073,1667445,58057,1667563,587352)).
cause((983073,1667445,58057,1667563,98830)).
cause((764984,1667445,58057,1667563,2003163)).
cause((764984,1667445,58057,1667563,1227988)).
cause((764984,1667445,58057,1667563,1228164)).
cause((764984,1667445,58057,1667563,1228099)).
cause((764984,1667445,58057,1667563,1227970)).
cause((764984,1667445,58057,1667563,983129)).
cause((764984,1667445,58057,1667563,790083)).
cause((764984,1667445,58057,1667563,587352)).
cause((764984,1667445,58057,1667563,98830)).
cause((592528,1667445,58057,1667563,2003163)).
cause((592528,1667445,58057,1667563,1227988)).
cause((592528,1667445,58057,1667563,1228164)).
cause((592528,1667445,58057,1667563,1228099)).
cause((592528,1667445,58057,1667563,1227970)).
cause((592528,1667445,58057,1667563,983129)).
cause((592528,1667445,58057,1667563,790083)).
cause((592528,1667445,58057,1667563,587352)).
cause((592528,1667445,58057,1667563,98830)).
cause((580619,1667445,58057,1667563,2003163)).
cause((580619,1667445,58057,1667563,1227988)).
cause((580619,1667445,58057,1667563,1228164)).
cause((580619,1667445,58057,1667563,1228099)).
cause((580619,1667445,58057,1667563,1227970)).
cause((580619,1667445,58057,1667563,983129)).
cause((580619,1667445,58057,1667563,790083)).
cause((580619,1667445,58057,1667563,587352)).
cause((580619,1667445,58057,1667563,98830)).
cause((77298,1667445,58057,1667563,2003163)).
cause((77298,1667445,58057,1667563,1227988)).
cause((77298,1667445,58057,1667563,1228164)).
cause((77298,1667445,58057,1667563,1228099)).
cause((77298,1667445,58057,1667563,1227970)).
cause((77298,1667445,58057,1667563,983129)).
cause((77298,1667445,58057,1667563,790083)).
cause((77298,1667445,58057,1667563,587352)).
cause((77298,1667445,58057,1667563,98830)).
inCause((1984486,1667445,58057,1667563,2003163), 2003163).
inCause((1984486,1667445,58057,1667563,2003163), 1667563).
inCause((1984486,1667445,58057,1667563,2003163), 58057).
inCause((1984486,1667445,58057,1667563,2003163), 1667445).
inCause((1984486,1667445,58057,1667563,2003163), 1984486).
inCause((1984486,1667445,58057,1667563,1227988), 1227988).
inCause((1984486,1667445,58057,1667563,1227988), 1667563).
inCause((1984486,1667445,58057,1667563,1227988), 58057).
inCause((1984486,1667445,58057,1667563,1227988), 1667445).
inCause((1984486,1667445,58057,1667563,1227988), 1984486).
inCause((1984486,1667445,58057,1667563,1228164), 1228164).
inCause((1984486,1667445,58057,1667563,1228164), 1667563).
inCause((1984486,1667445,58057,1667563,1228164), 58057).
inCause((1984486,1667445,58057,1667563,1228164), 1667445).
inCause((1984486,1667445,58057,1667563,1228164), 1984486).
inCause((1984486,1667445,58057,1667563,1228099), 1228099).
inCause((1984486,1667445,58057,1667563,1228099), 1667563).
inCause((1984486,1667445,58057,1667563,1228099), 58057).
inCause((1984486,1667445,58057,1667563,1228099), 1667445).
inCause((1984486,1667445,58057,1667563,1228099), 1984486).
inCause((1984486,1667445,58057,1667563,1227970), 1227970).
inCause((1984486,1667445,58057,1667563,1227970), 1667563).
inCause((1984486,1667445,58057,1667563,1227970), 58057).
inCause((1984486,1667445,58057,1667563,1227970), 1667445).
inCause((1984486,1667445,58057,1667563,1227970), 1984486).
inCause((1984486,1667445,58057,1667563,983129), 983129).
inCause((1984486,1667445,58057,1667563,983129), 1667563).
inCause((1984486,1667445,58057,1667563,983129), 58057).
inCause((1984486,1667445,58057,1667563,983129), 1667445).
inCause((1984486,1667445,58057,1667563,983129), 1984486).
inCause((1984486,1667445,58057,1667563,790083), 790083).
inCause((1984486,1667445,58057,1667563,790083), 1667563).
inCause((1984486,1667445,58057,1667563,790083), 58057).
inCause((1984486,1667445,58057,1667563,790083), 1667445).
inCause((1984486,1667445,58057,1667563,790083), 1984486).
inCause((1984486,1667445,58057,1667563,587352), 587352).
inCause((1984486,1667445,58057,1667563,587352), 1667563).
inCause((1984486,1667445,58057,1667563,587352), 58057).
inCause((1984486,1667445,58057,1667563,587352), 1667445).
inCause((1984486,1667445,58057,1667563,587352), 1984486).
inCause((1984486,1667445,58057,1667563,98830), 98830).
inCause((1984486,1667445,58057,1667563,98830), 1667563).
inCause((1984486,1667445,58057,1667563,98830), 58057).
inCause((1984486,1667445,58057,1667563,98830), 1667445).
inCause((1984486,1667445,58057,1667563,98830), 1984486).
inCause((1974972,1667445,58057,1667563,2003163), 2003163).
inCause((1974972,1667445,58057,1667563,2003163), 1667563).
inCause((1974972,1667445,58057,1667563,2003163), 58057).
inCause((1974972,1667445,58057,1667563,2003163), 1667445).
inCause((1974972,1667445,58057,1667563,2003163), 1974972).
inCause((1974972,1667445,58057,1667563,1227988), 1227988).
inCause((1974972,1667445,58057,1667563,1227988), 1667563).
inCause((1974972,1667445,58057,1667563,1227988), 58057).
inCause((1974972,1667445,58057,1667563,1227988), 1667445).
inCause((1974972,1667445,58057,1667563,1227988), 1974972).
inCause((1974972,1667445,58057,1667563,1228164), 1228164).
inCause((1974972,1667445,58057,1667563,1228164), 1667563).
inCause((1974972,1667445,58057,1667563,1228164), 58057).
inCause((1974972,1667445,58057,1667563,1228164), 1667445).
inCause((1974972,1667445,58057,1667563,1228164), 1974972).
inCause((1974972,1667445,58057,1667563,1228099), 1228099).
inCause((1974972,1667445,58057,1667563,1228099), 1667563).
inCause((1974972,1667445,58057,1667563,1228099), 58057).
inCause((1974972,1667445,58057,1667563,1228099), 1667445).
inCause((1974972,1667445,58057,1667563,1228099), 1974972).
inCause((1974972,1667445,58057,1667563,1227970), 1227970).
inCause((1974972,1667445,58057,1667563,1227970), 1667563).
inCause((1974972,1667445,58057,1667563,1227970), 58057).
inCause((1974972,1667445,58057,1667563,1227970), 1667445).
inCause((1974972,1667445,58057,1667563,1227970), 1974972).
inCause((1974972,1667445,58057,1667563,983129), 983129).
inCause((1974972,1667445,58057,1667563,983129), 1667563).
inCause((1974972,1667445,58057,1667563,983129), 58057).
inCause((1974972,1667445,58057,1667563,983129), 1667445).
inCause((1974972,1667445,58057,1667563,983129), 1974972).
inCause((1974972,1667445,58057,1667563,790083), 790083).
inCause((1974972,1667445,58057,1667563,790083), 1667563).
inCause((1974972,1667445,58057,1667563,790083), 58057).
inCause((1974972,1667445,58057,1667563,790083), 1667445).
inCause((1974972,1667445,58057,1667563,790083), 1974972).
inCause((1974972,1667445,58057,1667563,587352), 587352).
inCause((1974972,1667445,58057,1667563,587352), 1667563).
inCause((1974972,1667445,58057,1667563,587352), 58057).
inCause((1974972,1667445,58057,1667563,587352), 1667445).
inCause((1974972,1667445,58057,1667563,587352), 1974972).
inCause((1974972,1667445,58057,1667563,98830), 98830).
inCause((1974972,1667445,58057,1667563,98830), 1667563).
inCause((1974972,1667445,58057,1667563,98830), 58057).
inCause((1974972,1667445,58057,1667563,98830), 1667445).
inCause((1974972,1667445,58057,1667563,98830), 1974972).
inCause((983073,1667445,58057,1667563,2003163), 2003163).
inCause((983073,1667445,58057,1667563,2003163), 1667563).
inCause((983073,1667445,58057,1667563,2003163), 58057).
inCause((983073,1667445,58057,1667563,2003163), 1667445).
inCause((983073,1667445,58057,1667563,2003163), 983073).
inCause((983073,1667445,58057,1667563,1227988), 1227988).
inCause((983073,1667445,58057,1667563,1227988), 1667563).
inCause((983073,1667445,58057,1667563,1227988), 58057).
inCause((983073,1667445,58057,1667563,1227988), 1667445).
inCause((983073,1667445,58057,1667563,1227988), 983073).
inCause((983073,1667445,58057,1667563,1228164), 1228164).
inCause((983073,1667445,58057,1667563,1228164), 1667563).
inCause((983073,1667445,58057,1667563,1228164), 58057).
inCause((983073,1667445,58057,1667563,1228164), 1667445).
inCause((983073,1667445,58057,1667563,1228164), 983073).
inCause((983073,1667445,58057,1667563,1228099), 1228099).
inCause((983073,1667445,58057,1667563,1228099), 1667563).
inCause((983073,1667445,58057,1667563,1228099), 58057).
inCause((983073,1667445,58057,1667563,1228099), 1667445).
inCause((983073,1667445,58057,1667563,1228099), 983073).
inCause((983073,1667445,58057,1667563,1227970), 1227970).
inCause((983073,1667445,58057,1667563,1227970), 1667563).
inCause((983073,1667445,58057,1667563,1227970), 58057).
inCause((983073,1667445,58057,1667563,1227970), 1667445).
inCause((983073,1667445,58057,1667563,1227970), 983073).
inCause((983073,1667445,58057,1667563,983129), 983129).
inCause((983073,1667445,58057,1667563,983129), 1667563).
inCause((983073,1667445,58057,1667563,983129), 58057).
inCause((983073,1667445,58057,1667563,983129), 1667445).
inCause((983073,1667445,58057,1667563,983129), 983073).
inCause((983073,1667445,58057,1667563,790083), 790083).
inCause((983073,1667445,58057,1667563,790083), 1667563).
inCause((983073,1667445,58057,1667563,790083), 58057).
inCause((983073,1667445,58057,1667563,790083), 1667445).
inCause((983073,1667445,58057,1667563,790083), 983073).
inCause((983073,1667445,58057,1667563,587352), 587352).
inCause((983073,1667445,58057,1667563,587352), 1667563).
inCause((983073,1667445,58057,1667563,587352), 58057).
inCause((983073,1667445,58057,1667563,587352), 1667445).
inCause((983073,1667445,58057,1667563,587352), 983073).
inCause((983073,1667445,58057,1667563,98830), 98830).
inCause((983073,1667445,58057,1667563,98830), 1667563).
inCause((983073,1667445,58057,1667563,98830), 58057).
inCause((983073,1667445,58057,1667563,98830), 1667445).
inCause((983073,1667445,58057,1667563,98830), 983073).
inCause((764984,1667445,58057,1667563,2003163), 2003163).
inCause((764984,1667445,58057,1667563,2003163), 1667563).
inCause((764984,1667445,58057,1667563,2003163), 58057).
inCause((764984,1667445,58057,1667563,2003163), 1667445).
inCause((764984,1667445,58057,1667563,2003163), 764984).
inCause((764984,1667445,58057,1667563,1227988), 1227988).
inCause((764984,1667445,58057,1667563,1227988), 1667563).
inCause((764984,1667445,58057,1667563,1227988), 58057).
inCause((764984,1667445,58057,1667563,1227988), 1667445).
inCause((764984,1667445,58057,1667563,1227988), 764984).
inCause((764984,1667445,58057,1667563,1228164), 1228164).
inCause((764984,1667445,58057,1667563,1228164), 1667563).
inCause((764984,1667445,58057,1667563,1228164), 58057).
inCause((764984,1667445,58057,1667563,1228164), 1667445).
inCause((764984,1667445,58057,1667563,1228164), 764984).
inCause((764984,1667445,58057,1667563,1228099), 1228099).
inCause((764984,1667445,58057,1667563,1228099), 1667563).
inCause((764984,1667445,58057,1667563,1228099), 58057).
inCause((764984,1667445,58057,1667563,1228099), 1667445).
inCause((764984,1667445,58057,1667563,1228099), 764984).
inCause((764984,1667445,58057,1667563,1227970), 1227970).
inCause((764984,1667445,58057,1667563,1227970), 1667563).
inCause((764984,1667445,58057,1667563,1227970), 58057).
inCause((764984,1667445,58057,1667563,1227970), 1667445).
inCause((764984,1667445,58057,1667563,1227970), 764984).
inCause((764984,1667445,58057,1667563,983129), 983129).
inCause((764984,1667445,58057,1667563,983129), 1667563).
inCause((764984,1667445,58057,1667563,983129), 58057).
inCause((764984,1667445,58057,1667563,983129), 1667445).
inCause((764984,1667445,58057,1667563,983129), 764984).
inCause((764984,1667445,58057,1667563,790083), 790083).
inCause((764984,1667445,58057,1667563,790083), 1667563).
inCause((764984,1667445,58057,1667563,790083), 58057).
inCause((764984,1667445,58057,1667563,790083), 1667445).
inCause((764984,1667445,58057,1667563,790083), 764984).
inCause((764984,1667445,58057,1667563,587352), 587352).
inCause((764984,1667445,58057,1667563,587352), 1667563).
inCause((764984,1667445,58057,1667563,587352), 58057).
inCause((764984,1667445,58057,1667563,587352), 1667445).
inCause((764984,1667445,58057,1667563,587352), 764984).
inCause((764984,1667445,58057,1667563,98830), 98830).
inCause((764984,1667445,58057,1667563,98830), 1667563).
inCause((764984,1667445,58057,1667563,98830), 58057).
inCause((764984,1667445,58057,1667563,98830), 1667445).
inCause((764984,1667445,58057,1667563,98830), 764984).
inCause((592528,1667445,58057,1667563,2003163), 2003163).
inCause((592528,1667445,58057,1667563,2003163), 1667563).
inCause((592528,1667445,58057,1667563,2003163), 58057).
inCause((592528,1667445,58057,1667563,2003163), 1667445).
inCause((592528,1667445,58057,1667563,2003163), 592528).
inCause((592528,1667445,58057,1667563,1227988), 1227988).
inCause((592528,1667445,58057,1667563,1227988), 1667563).
inCause((592528,1667445,58057,1667563,1227988), 58057).
inCause((592528,1667445,58057,1667563,1227988), 1667445).
inCause((592528,1667445,58057,1667563,1227988), 592528).
inCause((592528,1667445,58057,1667563,1228164), 1228164).
inCause((592528,1667445,58057,1667563,1228164), 1667563).
inCause((592528,1667445,58057,1667563,1228164), 58057).
inCause((592528,1667445,58057,1667563,1228164), 1667445).
inCause((592528,1667445,58057,1667563,1228164), 592528).
inCause((592528,1667445,58057,1667563,1228099), 1228099).
inCause((592528,1667445,58057,1667563,1228099), 1667563).
inCause((592528,1667445,58057,1667563,1228099), 58057).
inCause((592528,1667445,58057,1667563,1228099), 1667445).
inCause((592528,1667445,58057,1667563,1228099), 592528).
inCause((592528,1667445,58057,1667563,1227970), 1227970).
inCause((592528,1667445,58057,1667563,1227970), 1667563).
inCause((592528,1667445,58057,1667563,1227970), 58057).
inCause((592528,1667445,58057,1667563,1227970), 1667445).
inCause((592528,1667445,58057,1667563,1227970), 592528).
inCause((592528,1667445,58057,1667563,983129), 983129).
inCause((592528,1667445,58057,1667563,983129), 1667563).
inCause((592528,1667445,58057,1667563,983129), 58057).
inCause((592528,1667445,58057,1667563,983129), 1667445).
inCause((592528,1667445,58057,1667563,983129), 592528).
inCause((592528,1667445,58057,1667563,790083), 790083).
inCause((592528,1667445,58057,1667563,790083), 1667563).
inCause((592528,1667445,58057,1667563,790083), 58057).
inCause((592528,1667445,58057,1667563,790083), 1667445).
inCause((592528,1667445,58057,1667563,790083), 592528).
inCause((592528,1667445,58057,1667563,587352), 587352).
inCause((592528,1667445,58057,1667563,587352), 1667563).
inCause((592528,1667445,58057,1667563,587352), 58057).
inCause((592528,1667445,58057,1667563,587352), 1667445).
inCause((592528,1667445,58057,1667563,587352), 592528).
inCause((592528,1667445,58057,1667563,98830), 98830).
inCause((592528,1667445,58057,1667563,98830), 1667563).
inCause((592528,1667445,58057,1667563,98830), 58057).
inCause((592528,1667445,58057,1667563,98830), 1667445).
inCause((592528,1667445,58057,1667563,98830), 592528).
inCause((580619,1667445,58057,1667563,2003163), 2003163).
inCause((580619,1667445,58057,1667563,2003163), 1667563).
inCause((580619,1667445,58057,1667563,2003163), 58057).
inCause((580619,1667445,58057,1667563,2003163), 1667445).
inCause((580619,1667445,58057,1667563,2003163), 580619).
inCause((580619,1667445,58057,1667563,1227988), 1227988).
inCause((580619,1667445,58057,1667563,1227988), 1667563).
inCause((580619,1667445,58057,1667563,1227988), 58057).
inCause((580619,1667445,58057,1667563,1227988), 1667445).
inCause((580619,1667445,58057,1667563,1227988), 580619).
inCause((580619,1667445,58057,1667563,1228164), 1228164).
inCause((580619,1667445,58057,1667563,1228164), 1667563).
inCause((580619,1667445,58057,1667563,1228164), 58057).
inCause((580619,1667445,58057,1667563,1228164), 1667445).
inCause((580619,1667445,58057,1667563,1228164), 580619).
inCause((580619,1667445,58057,1667563,1228099), 1228099).
inCause((580619,1667445,58057,1667563,1228099), 1667563).
inCause((580619,1667445,58057,1667563,1228099), 58057).
inCause((580619,1667445,58057,1667563,1228099), 1667445).
inCause((580619,1667445,58057,1667563,1228099), 580619).
inCause((580619,1667445,58057,1667563,1227970), 1227970).
inCause((580619,1667445,58057,1667563,1227970), 1667563).
inCause((580619,1667445,58057,1667563,1227970), 58057).
inCause((580619,1667445,58057,1667563,1227970), 1667445).
inCause((580619,1667445,58057,1667563,1227970), 580619).
inCause((580619,1667445,58057,1667563,983129), 983129).
inCause((580619,1667445,58057,1667563,983129), 1667563).
inCause((580619,1667445,58057,1667563,983129), 58057).
inCause((580619,1667445,58057,1667563,983129), 1667445).
inCause((580619,1667445,58057,1667563,983129), 580619).
inCause((580619,1667445,58057,1667563,790083), 790083).
inCause((580619,1667445,58057,1667563,790083), 1667563).
inCause((580619,1667445,58057,1667563,790083), 58057).
inCause((580619,1667445,58057,1667563,790083), 1667445).
inCause((580619,1667445,58057,1667563,790083), 580619).
inCause((580619,1667445,58057,1667563,587352), 587352).
inCause((580619,1667445,58057,1667563,587352), 1667563).
inCause((580619,1667445,58057,1667563,587352), 58057).
inCause((580619,1667445,58057,1667563,587352), 1667445).
inCause((580619,1667445,58057,1667563,587352), 580619).
inCause((580619,1667445,58057,1667563,98830), 98830).
inCause((580619,1667445,58057,1667563,98830), 1667563).
inCause((580619,1667445,58057,1667563,98830), 58057).
inCause((580619,1667445,58057,1667563,98830), 1667445).
inCause((580619,1667445,58057,1667563,98830), 580619).
inCause((77298,1667445,58057,1667563,2003163), 2003163).
inCause((77298,1667445,58057,1667563,2003163), 1667563).
inCause((77298,1667445,58057,1667563,2003163), 58057).
inCause((77298,1667445,58057,1667563,2003163), 1667445).
inCause((77298,1667445,58057,1667563,2003163), 77298).
inCause((77298,1667445,58057,1667563,1227988), 1227988).
inCause((77298,1667445,58057,1667563,1227988), 1667563).
inCause((77298,1667445,58057,1667563,1227988), 58057).
inCause((77298,1667445,58057,1667563,1227988), 1667445).
inCause((77298,1667445,58057,1667563,1227988), 77298).
inCause((77298,1667445,58057,1667563,1228164), 1228164).
inCause((77298,1667445,58057,1667563,1228164), 1667563).
inCause((77298,1667445,58057,1667563,1228164), 58057).
inCause((77298,1667445,58057,1667563,1228164), 1667445).
inCause((77298,1667445,58057,1667563,1228164), 77298).
inCause((77298,1667445,58057,1667563,1228099), 1228099).
inCause((77298,1667445,58057,1667563,1228099), 1667563).
inCause((77298,1667445,58057,1667563,1228099), 58057).
inCause((77298,1667445,58057,1667563,1228099), 1667445).
inCause((77298,1667445,58057,1667563,1228099), 77298).
inCause((77298,1667445,58057,1667563,1227970), 1227970).
inCause((77298,1667445,58057,1667563,1227970), 1667563).
inCause((77298,1667445,58057,1667563,1227970), 58057).
inCause((77298,1667445,58057,1667563,1227970), 1667445).
inCause((77298,1667445,58057,1667563,1227970), 77298).
inCause((77298,1667445,58057,1667563,983129), 983129).
inCause((77298,1667445,58057,1667563,983129), 1667563).
inCause((77298,1667445,58057,1667563,983129), 58057).
inCause((77298,1667445,58057,1667563,983129), 1667445).
inCause((77298,1667445,58057,1667563,983129), 77298).
inCause((77298,1667445,58057,1667563,790083), 790083).
inCause((77298,1667445,58057,1667563,790083), 1667563).
inCause((77298,1667445,58057,1667563,790083), 58057).
inCause((77298,1667445,58057,1667563,790083), 1667445).
inCause((77298,1667445,58057,1667563,790083), 77298).
inCause((77298,1667445,58057,1667563,587352), 587352).
inCause((77298,1667445,58057,1667563,587352), 1667563).
inCause((77298,1667445,58057,1667563,587352), 58057).
inCause((77298,1667445,58057,1667563,587352), 1667445).
inCause((77298,1667445,58057,1667563,587352), 77298).
inCause((77298,1667445,58057,1667563,98830), 98830).
inCause((77298,1667445,58057,1667563,98830), 1667563).
inCause((77298,1667445,58057,1667563,98830), 58057).
inCause((77298,1667445,58057,1667563,98830), 1667445).
inCause((77298,1667445,58057,1667563,98830), 77298).
