cause((1984486,1667445,58057,1667444,2030841)).
cause((1984486,1667445,58057,1667444,1228223)).
cause((1984486,1667445,58057,1667444,1228050)).
cause((1984486,1667445,58057,1667444,983072)).
cause((1984486,1667445,58057,1667444,785648)).
cause((1984486,1667445,58057,1667444,585613)).
cause((1984486,1667445,58057,1667444,86384)).
cause((1974972,1667445,58057,1667444,2030841)).
cause((1974972,1667445,58057,1667444,1228223)).
cause((1974972,1667445,58057,1667444,1228050)).
cause((1974972,1667445,58057,1667444,983072)).
cause((1974972,1667445,58057,1667444,785648)).
cause((1974972,1667445,58057,1667444,585613)).
cause((1974972,1667445,58057,1667444,86384)).
cause((983073,1667445,58057,1667444,2030841)).
cause((983073,1667445,58057,1667444,1228223)).
cause((983073,1667445,58057,1667444,1228050)).
cause((983073,1667445,58057,1667444,983072)).
cause((983073,1667445,58057,1667444,785648)).
cause((983073,1667445,58057,1667444,585613)).
cause((983073,1667445,58057,1667444,86384)).
cause((764984,1667445,58057,1667444,2030841)).
cause((764984,1667445,58057,1667444,1228223)).
cause((764984,1667445,58057,1667444,1228050)).
cause((764984,1667445,58057,1667444,983072)).
cause((764984,1667445,58057,1667444,785648)).
cause((764984,1667445,58057,1667444,585613)).
cause((764984,1667445,58057,1667444,86384)).
cause((592528,1667445,58057,1667444,2030841)).
cause((592528,1667445,58057,1667444,1228223)).
cause((592528,1667445,58057,1667444,1228050)).
cause((592528,1667445,58057,1667444,983072)).
cause((592528,1667445,58057,1667444,785648)).
cause((592528,1667445,58057,1667444,585613)).
cause((592528,1667445,58057,1667444,86384)).
cause((580619,1667445,58057,1667444,2030841)).
cause((580619,1667445,58057,1667444,1228223)).
cause((580619,1667445,58057,1667444,1228050)).
cause((580619,1667445,58057,1667444,983072)).
cause((580619,1667445,58057,1667444,785648)).
cause((580619,1667445,58057,1667444,585613)).
cause((580619,1667445,58057,1667444,86384)).
cause((77298,1667445,58057,1667444,2030841)).
cause((77298,1667445,58057,1667444,1228223)).
cause((77298,1667445,58057,1667444,1228050)).
cause((77298,1667445,58057,1667444,983072)).
cause((77298,1667445,58057,1667444,785648)).
cause((77298,1667445,58057,1667444,585613)).
cause((77298,1667445,58057,1667444,86384)).
inCause((1984486,1667445,58057,1667444,2030841), 2030841).
inCause((1984486,1667445,58057,1667444,2030841), 1667444).
inCause((1984486,1667445,58057,1667444,2030841), 58057).
inCause((1984486,1667445,58057,1667444,2030841), 1667445).
inCause((1984486,1667445,58057,1667444,2030841), 1984486).
inCause((1984486,1667445,58057,1667444,1228223), 1228223).
inCause((1984486,1667445,58057,1667444,1228223), 1667444).
inCause((1984486,1667445,58057,1667444,1228223), 58057).
inCause((1984486,1667445,58057,1667444,1228223), 1667445).
inCause((1984486,1667445,58057,1667444,1228223), 1984486).
inCause((1984486,1667445,58057,1667444,1228050), 1228050).
inCause((1984486,1667445,58057,1667444,1228050), 1667444).
inCause((1984486,1667445,58057,1667444,1228050), 58057).
inCause((1984486,1667445,58057,1667444,1228050), 1667445).
inCause((1984486,1667445,58057,1667444,1228050), 1984486).
inCause((1984486,1667445,58057,1667444,983072), 983072).
inCause((1984486,1667445,58057,1667444,983072), 1667444).
inCause((1984486,1667445,58057,1667444,983072), 58057).
inCause((1984486,1667445,58057,1667444,983072), 1667445).
inCause((1984486,1667445,58057,1667444,983072), 1984486).
inCause((1984486,1667445,58057,1667444,785648), 785648).
inCause((1984486,1667445,58057,1667444,785648), 1667444).
inCause((1984486,1667445,58057,1667444,785648), 58057).
inCause((1984486,1667445,58057,1667444,785648), 1667445).
inCause((1984486,1667445,58057,1667444,785648), 1984486).
inCause((1984486,1667445,58057,1667444,585613), 585613).
inCause((1984486,1667445,58057,1667444,585613), 1667444).
inCause((1984486,1667445,58057,1667444,585613), 58057).
inCause((1984486,1667445,58057,1667444,585613), 1667445).
inCause((1984486,1667445,58057,1667444,585613), 1984486).
inCause((1984486,1667445,58057,1667444,86384), 86384).
inCause((1984486,1667445,58057,1667444,86384), 1667444).
inCause((1984486,1667445,58057,1667444,86384), 58057).
inCause((1984486,1667445,58057,1667444,86384), 1667445).
inCause((1984486,1667445,58057,1667444,86384), 1984486).
inCause((1974972,1667445,58057,1667444,2030841), 2030841).
inCause((1974972,1667445,58057,1667444,2030841), 1667444).
inCause((1974972,1667445,58057,1667444,2030841), 58057).
inCause((1974972,1667445,58057,1667444,2030841), 1667445).
inCause((1974972,1667445,58057,1667444,2030841), 1974972).
inCause((1974972,1667445,58057,1667444,1228223), 1228223).
inCause((1974972,1667445,58057,1667444,1228223), 1667444).
inCause((1974972,1667445,58057,1667444,1228223), 58057).
inCause((1974972,1667445,58057,1667444,1228223), 1667445).
inCause((1974972,1667445,58057,1667444,1228223), 1974972).
inCause((1974972,1667445,58057,1667444,1228050), 1228050).
inCause((1974972,1667445,58057,1667444,1228050), 1667444).
inCause((1974972,1667445,58057,1667444,1228050), 58057).
inCause((1974972,1667445,58057,1667444,1228050), 1667445).
inCause((1974972,1667445,58057,1667444,1228050), 1974972).
inCause((1974972,1667445,58057,1667444,983072), 983072).
inCause((1974972,1667445,58057,1667444,983072), 1667444).
inCause((1974972,1667445,58057,1667444,983072), 58057).
inCause((1974972,1667445,58057,1667444,983072), 1667445).
inCause((1974972,1667445,58057,1667444,983072), 1974972).
inCause((1974972,1667445,58057,1667444,785648), 785648).
inCause((1974972,1667445,58057,1667444,785648), 1667444).
inCause((1974972,1667445,58057,1667444,785648), 58057).
inCause((1974972,1667445,58057,1667444,785648), 1667445).
inCause((1974972,1667445,58057,1667444,785648), 1974972).
inCause((1974972,1667445,58057,1667444,585613), 585613).
inCause((1974972,1667445,58057,1667444,585613), 1667444).
inCause((1974972,1667445,58057,1667444,585613), 58057).
inCause((1974972,1667445,58057,1667444,585613), 1667445).
inCause((1974972,1667445,58057,1667444,585613), 1974972).
inCause((1974972,1667445,58057,1667444,86384), 86384).
inCause((1974972,1667445,58057,1667444,86384), 1667444).
inCause((1974972,1667445,58057,1667444,86384), 58057).
inCause((1974972,1667445,58057,1667444,86384), 1667445).
inCause((1974972,1667445,58057,1667444,86384), 1974972).
inCause((983073,1667445,58057,1667444,2030841), 2030841).
inCause((983073,1667445,58057,1667444,2030841), 1667444).
inCause((983073,1667445,58057,1667444,2030841), 58057).
inCause((983073,1667445,58057,1667444,2030841), 1667445).
inCause((983073,1667445,58057,1667444,2030841), 983073).
inCause((983073,1667445,58057,1667444,1228223), 1228223).
inCause((983073,1667445,58057,1667444,1228223), 1667444).
inCause((983073,1667445,58057,1667444,1228223), 58057).
inCause((983073,1667445,58057,1667444,1228223), 1667445).
inCause((983073,1667445,58057,1667444,1228223), 983073).
inCause((983073,1667445,58057,1667444,1228050), 1228050).
inCause((983073,1667445,58057,1667444,1228050), 1667444).
inCause((983073,1667445,58057,1667444,1228050), 58057).
inCause((983073,1667445,58057,1667444,1228050), 1667445).
inCause((983073,1667445,58057,1667444,1228050), 983073).
inCause((983073,1667445,58057,1667444,983072), 983072).
inCause((983073,1667445,58057,1667444,983072), 1667444).
inCause((983073,1667445,58057,1667444,983072), 58057).
inCause((983073,1667445,58057,1667444,983072), 1667445).
inCause((983073,1667445,58057,1667444,983072), 983073).
inCause((983073,1667445,58057,1667444,785648), 785648).
inCause((983073,1667445,58057,1667444,785648), 1667444).
inCause((983073,1667445,58057,1667444,785648), 58057).
inCause((983073,1667445,58057,1667444,785648), 1667445).
inCause((983073,1667445,58057,1667444,785648), 983073).
inCause((983073,1667445,58057,1667444,585613), 585613).
inCause((983073,1667445,58057,1667444,585613), 1667444).
inCause((983073,1667445,58057,1667444,585613), 58057).
inCause((983073,1667445,58057,1667444,585613), 1667445).
inCause((983073,1667445,58057,1667444,585613), 983073).
inCause((983073,1667445,58057,1667444,86384), 86384).
inCause((983073,1667445,58057,1667444,86384), 1667444).
inCause((983073,1667445,58057,1667444,86384), 58057).
inCause((983073,1667445,58057,1667444,86384), 1667445).
inCause((983073,1667445,58057,1667444,86384), 983073).
inCause((764984,1667445,58057,1667444,2030841), 2030841).
inCause((764984,1667445,58057,1667444,2030841), 1667444).
inCause((764984,1667445,58057,1667444,2030841), 58057).
inCause((764984,1667445,58057,1667444,2030841), 1667445).
inCause((764984,1667445,58057,1667444,2030841), 764984).
inCause((764984,1667445,58057,1667444,1228223), 1228223).
inCause((764984,1667445,58057,1667444,1228223), 1667444).
inCause((764984,1667445,58057,1667444,1228223), 58057).
inCause((764984,1667445,58057,1667444,1228223), 1667445).
inCause((764984,1667445,58057,1667444,1228223), 764984).
inCause((764984,1667445,58057,1667444,1228050), 1228050).
inCause((764984,1667445,58057,1667444,1228050), 1667444).
inCause((764984,1667445,58057,1667444,1228050), 58057).
inCause((764984,1667445,58057,1667444,1228050), 1667445).
inCause((764984,1667445,58057,1667444,1228050), 764984).
inCause((764984,1667445,58057,1667444,983072), 983072).
inCause((764984,1667445,58057,1667444,983072), 1667444).
inCause((764984,1667445,58057,1667444,983072), 58057).
inCause((764984,1667445,58057,1667444,983072), 1667445).
inCause((764984,1667445,58057,1667444,983072), 764984).
inCause((764984,1667445,58057,1667444,785648), 785648).
inCause((764984,1667445,58057,1667444,785648), 1667444).
inCause((764984,1667445,58057,1667444,785648), 58057).
inCause((764984,1667445,58057,1667444,785648), 1667445).
inCause((764984,1667445,58057,1667444,785648), 764984).
inCause((764984,1667445,58057,1667444,585613), 585613).
inCause((764984,1667445,58057,1667444,585613), 1667444).
inCause((764984,1667445,58057,1667444,585613), 58057).
inCause((764984,1667445,58057,1667444,585613), 1667445).
inCause((764984,1667445,58057,1667444,585613), 764984).
inCause((764984,1667445,58057,1667444,86384), 86384).
inCause((764984,1667445,58057,1667444,86384), 1667444).
inCause((764984,1667445,58057,1667444,86384), 58057).
inCause((764984,1667445,58057,1667444,86384), 1667445).
inCause((764984,1667445,58057,1667444,86384), 764984).
inCause((592528,1667445,58057,1667444,2030841), 2030841).
inCause((592528,1667445,58057,1667444,2030841), 1667444).
inCause((592528,1667445,58057,1667444,2030841), 58057).
inCause((592528,1667445,58057,1667444,2030841), 1667445).
inCause((592528,1667445,58057,1667444,2030841), 592528).
inCause((592528,1667445,58057,1667444,1228223), 1228223).
inCause((592528,1667445,58057,1667444,1228223), 1667444).
inCause((592528,1667445,58057,1667444,1228223), 58057).
inCause((592528,1667445,58057,1667444,1228223), 1667445).
inCause((592528,1667445,58057,1667444,1228223), 592528).
inCause((592528,1667445,58057,1667444,1228050), 1228050).
inCause((592528,1667445,58057,1667444,1228050), 1667444).
inCause((592528,1667445,58057,1667444,1228050), 58057).
inCause((592528,1667445,58057,1667444,1228050), 1667445).
inCause((592528,1667445,58057,1667444,1228050), 592528).
inCause((592528,1667445,58057,1667444,983072), 983072).
inCause((592528,1667445,58057,1667444,983072), 1667444).
inCause((592528,1667445,58057,1667444,983072), 58057).
inCause((592528,1667445,58057,1667444,983072), 1667445).
inCause((592528,1667445,58057,1667444,983072), 592528).
inCause((592528,1667445,58057,1667444,785648), 785648).
inCause((592528,1667445,58057,1667444,785648), 1667444).
inCause((592528,1667445,58057,1667444,785648), 58057).
inCause((592528,1667445,58057,1667444,785648), 1667445).
inCause((592528,1667445,58057,1667444,785648), 592528).
inCause((592528,1667445,58057,1667444,585613), 585613).
inCause((592528,1667445,58057,1667444,585613), 1667444).
inCause((592528,1667445,58057,1667444,585613), 58057).
inCause((592528,1667445,58057,1667444,585613), 1667445).
inCause((592528,1667445,58057,1667444,585613), 592528).
inCause((592528,1667445,58057,1667444,86384), 86384).
inCause((592528,1667445,58057,1667444,86384), 1667444).
inCause((592528,1667445,58057,1667444,86384), 58057).
inCause((592528,1667445,58057,1667444,86384), 1667445).
inCause((592528,1667445,58057,1667444,86384), 592528).
inCause((580619,1667445,58057,1667444,2030841), 2030841).
inCause((580619,1667445,58057,1667444,2030841), 1667444).
inCause((580619,1667445,58057,1667444,2030841), 58057).
inCause((580619,1667445,58057,1667444,2030841), 1667445).
inCause((580619,1667445,58057,1667444,2030841), 580619).
inCause((580619,1667445,58057,1667444,1228223), 1228223).
inCause((580619,1667445,58057,1667444,1228223), 1667444).
inCause((580619,1667445,58057,1667444,1228223), 58057).
inCause((580619,1667445,58057,1667444,1228223), 1667445).
inCause((580619,1667445,58057,1667444,1228223), 580619).
inCause((580619,1667445,58057,1667444,1228050), 1228050).
inCause((580619,1667445,58057,1667444,1228050), 1667444).
inCause((580619,1667445,58057,1667444,1228050), 58057).
inCause((580619,1667445,58057,1667444,1228050), 1667445).
inCause((580619,1667445,58057,1667444,1228050), 580619).
inCause((580619,1667445,58057,1667444,983072), 983072).
inCause((580619,1667445,58057,1667444,983072), 1667444).
inCause((580619,1667445,58057,1667444,983072), 58057).
inCause((580619,1667445,58057,1667444,983072), 1667445).
inCause((580619,1667445,58057,1667444,983072), 580619).
inCause((580619,1667445,58057,1667444,785648), 785648).
inCause((580619,1667445,58057,1667444,785648), 1667444).
inCause((580619,1667445,58057,1667444,785648), 58057).
inCause((580619,1667445,58057,1667444,785648), 1667445).
inCause((580619,1667445,58057,1667444,785648), 580619).
inCause((580619,1667445,58057,1667444,585613), 585613).
inCause((580619,1667445,58057,1667444,585613), 1667444).
inCause((580619,1667445,58057,1667444,585613), 58057).
inCause((580619,1667445,58057,1667444,585613), 1667445).
inCause((580619,1667445,58057,1667444,585613), 580619).
inCause((580619,1667445,58057,1667444,86384), 86384).
inCause((580619,1667445,58057,1667444,86384), 1667444).
inCause((580619,1667445,58057,1667444,86384), 58057).
inCause((580619,1667445,58057,1667444,86384), 1667445).
inCause((580619,1667445,58057,1667444,86384), 580619).
inCause((77298,1667445,58057,1667444,2030841), 2030841).
inCause((77298,1667445,58057,1667444,2030841), 1667444).
inCause((77298,1667445,58057,1667444,2030841), 58057).
inCause((77298,1667445,58057,1667444,2030841), 1667445).
inCause((77298,1667445,58057,1667444,2030841), 77298).
inCause((77298,1667445,58057,1667444,1228223), 1228223).
inCause((77298,1667445,58057,1667444,1228223), 1667444).
inCause((77298,1667445,58057,1667444,1228223), 58057).
inCause((77298,1667445,58057,1667444,1228223), 1667445).
inCause((77298,1667445,58057,1667444,1228223), 77298).
inCause((77298,1667445,58057,1667444,1228050), 1228050).
inCause((77298,1667445,58057,1667444,1228050), 1667444).
inCause((77298,1667445,58057,1667444,1228050), 58057).
inCause((77298,1667445,58057,1667444,1228050), 1667445).
inCause((77298,1667445,58057,1667444,1228050), 77298).
inCause((77298,1667445,58057,1667444,983072), 983072).
inCause((77298,1667445,58057,1667444,983072), 1667444).
inCause((77298,1667445,58057,1667444,983072), 58057).
inCause((77298,1667445,58057,1667444,983072), 1667445).
inCause((77298,1667445,58057,1667444,983072), 77298).
inCause((77298,1667445,58057,1667444,785648), 785648).
inCause((77298,1667445,58057,1667444,785648), 1667444).
inCause((77298,1667445,58057,1667444,785648), 58057).
inCause((77298,1667445,58057,1667444,785648), 1667445).
inCause((77298,1667445,58057,1667444,785648), 77298).
inCause((77298,1667445,58057,1667444,585613), 585613).
inCause((77298,1667445,58057,1667444,585613), 1667444).
inCause((77298,1667445,58057,1667444,585613), 58057).
inCause((77298,1667445,58057,1667444,585613), 1667445).
inCause((77298,1667445,58057,1667444,585613), 77298).
inCause((77298,1667445,58057,1667444,86384), 86384).
inCause((77298,1667445,58057,1667444,86384), 1667444).
inCause((77298,1667445,58057,1667444,86384), 58057).
inCause((77298,1667445,58057,1667444,86384), 1667445).
inCause((77298,1667445,58057,1667444,86384), 77298).
