cause((1984486,1667445,58057,1667483,2020354)).
cause((1984486,1667445,58057,1667483,1228140)).
cause((1984486,1667445,58057,1667483,796704)).
cause((1984486,1667445,58057,1667483,579237)).
cause((1984486,1667445,58057,1667483,291410)).
cause((1984486,1667445,58057,1667483,112712)).
cause((1974972,1667445,58057,1667483,2020354)).
cause((1974972,1667445,58057,1667483,1228140)).
cause((1974972,1667445,58057,1667483,796704)).
cause((1974972,1667445,58057,1667483,579237)).
cause((1974972,1667445,58057,1667483,291410)).
cause((1974972,1667445,58057,1667483,112712)).
cause((983073,1667445,58057,1667483,2020354)).
cause((983073,1667445,58057,1667483,1228140)).
cause((983073,1667445,58057,1667483,796704)).
cause((983073,1667445,58057,1667483,579237)).
cause((983073,1667445,58057,1667483,291410)).
cause((983073,1667445,58057,1667483,112712)).
cause((764984,1667445,58057,1667483,2020354)).
cause((764984,1667445,58057,1667483,1228140)).
cause((764984,1667445,58057,1667483,796704)).
cause((764984,1667445,58057,1667483,579237)).
cause((764984,1667445,58057,1667483,291410)).
cause((764984,1667445,58057,1667483,112712)).
cause((592528,1667445,58057,1667483,2020354)).
cause((592528,1667445,58057,1667483,1228140)).
cause((592528,1667445,58057,1667483,796704)).
cause((592528,1667445,58057,1667483,579237)).
cause((592528,1667445,58057,1667483,291410)).
cause((592528,1667445,58057,1667483,112712)).
cause((580619,1667445,58057,1667483,2020354)).
cause((580619,1667445,58057,1667483,1228140)).
cause((580619,1667445,58057,1667483,796704)).
cause((580619,1667445,58057,1667483,579237)).
cause((580619,1667445,58057,1667483,291410)).
cause((580619,1667445,58057,1667483,112712)).
cause((77298,1667445,58057,1667483,2020354)).
cause((77298,1667445,58057,1667483,1228140)).
cause((77298,1667445,58057,1667483,796704)).
cause((77298,1667445,58057,1667483,579237)).
cause((77298,1667445,58057,1667483,291410)).
cause((77298,1667445,58057,1667483,112712)).
inCause((1984486,1667445,58057,1667483,2020354), 2020354).
inCause((1984486,1667445,58057,1667483,2020354), 1667483).
inCause((1984486,1667445,58057,1667483,2020354), 58057).
inCause((1984486,1667445,58057,1667483,2020354), 1667445).
inCause((1984486,1667445,58057,1667483,2020354), 1984486).
inCause((1984486,1667445,58057,1667483,1228140), 1228140).
inCause((1984486,1667445,58057,1667483,1228140), 1667483).
inCause((1984486,1667445,58057,1667483,1228140), 58057).
inCause((1984486,1667445,58057,1667483,1228140), 1667445).
inCause((1984486,1667445,58057,1667483,1228140), 1984486).
inCause((1984486,1667445,58057,1667483,796704), 796704).
inCause((1984486,1667445,58057,1667483,796704), 1667483).
inCause((1984486,1667445,58057,1667483,796704), 58057).
inCause((1984486,1667445,58057,1667483,796704), 1667445).
inCause((1984486,1667445,58057,1667483,796704), 1984486).
inCause((1984486,1667445,58057,1667483,579237), 579237).
inCause((1984486,1667445,58057,1667483,579237), 1667483).
inCause((1984486,1667445,58057,1667483,579237), 58057).
inCause((1984486,1667445,58057,1667483,579237), 1667445).
inCause((1984486,1667445,58057,1667483,579237), 1984486).
inCause((1984486,1667445,58057,1667483,291410), 291410).
inCause((1984486,1667445,58057,1667483,291410), 1667483).
inCause((1984486,1667445,58057,1667483,291410), 58057).
inCause((1984486,1667445,58057,1667483,291410), 1667445).
inCause((1984486,1667445,58057,1667483,291410), 1984486).
inCause((1984486,1667445,58057,1667483,112712), 112712).
inCause((1984486,1667445,58057,1667483,112712), 1667483).
inCause((1984486,1667445,58057,1667483,112712), 58057).
inCause((1984486,1667445,58057,1667483,112712), 1667445).
inCause((1984486,1667445,58057,1667483,112712), 1984486).
inCause((1974972,1667445,58057,1667483,2020354), 2020354).
inCause((1974972,1667445,58057,1667483,2020354), 1667483).
inCause((1974972,1667445,58057,1667483,2020354), 58057).
inCause((1974972,1667445,58057,1667483,2020354), 1667445).
inCause((1974972,1667445,58057,1667483,2020354), 1974972).
inCause((1974972,1667445,58057,1667483,1228140), 1228140).
inCause((1974972,1667445,58057,1667483,1228140), 1667483).
inCause((1974972,1667445,58057,1667483,1228140), 58057).
inCause((1974972,1667445,58057,1667483,1228140), 1667445).
inCause((1974972,1667445,58057,1667483,1228140), 1974972).
inCause((1974972,1667445,58057,1667483,796704), 796704).
inCause((1974972,1667445,58057,1667483,796704), 1667483).
inCause((1974972,1667445,58057,1667483,796704), 58057).
inCause((1974972,1667445,58057,1667483,796704), 1667445).
inCause((1974972,1667445,58057,1667483,796704), 1974972).
inCause((1974972,1667445,58057,1667483,579237), 579237).
inCause((1974972,1667445,58057,1667483,579237), 1667483).
inCause((1974972,1667445,58057,1667483,579237), 58057).
inCause((1974972,1667445,58057,1667483,579237), 1667445).
inCause((1974972,1667445,58057,1667483,579237), 1974972).
inCause((1974972,1667445,58057,1667483,291410), 291410).
inCause((1974972,1667445,58057,1667483,291410), 1667483).
inCause((1974972,1667445,58057,1667483,291410), 58057).
inCause((1974972,1667445,58057,1667483,291410), 1667445).
inCause((1974972,1667445,58057,1667483,291410), 1974972).
inCause((1974972,1667445,58057,1667483,112712), 112712).
inCause((1974972,1667445,58057,1667483,112712), 1667483).
inCause((1974972,1667445,58057,1667483,112712), 58057).
inCause((1974972,1667445,58057,1667483,112712), 1667445).
inCause((1974972,1667445,58057,1667483,112712), 1974972).
inCause((983073,1667445,58057,1667483,2020354), 2020354).
inCause((983073,1667445,58057,1667483,2020354), 1667483).
inCause((983073,1667445,58057,1667483,2020354), 58057).
inCause((983073,1667445,58057,1667483,2020354), 1667445).
inCause((983073,1667445,58057,1667483,2020354), 983073).
inCause((983073,1667445,58057,1667483,1228140), 1228140).
inCause((983073,1667445,58057,1667483,1228140), 1667483).
inCause((983073,1667445,58057,1667483,1228140), 58057).
inCause((983073,1667445,58057,1667483,1228140), 1667445).
inCause((983073,1667445,58057,1667483,1228140), 983073).
inCause((983073,1667445,58057,1667483,796704), 796704).
inCause((983073,1667445,58057,1667483,796704), 1667483).
inCause((983073,1667445,58057,1667483,796704), 58057).
inCause((983073,1667445,58057,1667483,796704), 1667445).
inCause((983073,1667445,58057,1667483,796704), 983073).
inCause((983073,1667445,58057,1667483,579237), 579237).
inCause((983073,1667445,58057,1667483,579237), 1667483).
inCause((983073,1667445,58057,1667483,579237), 58057).
inCause((983073,1667445,58057,1667483,579237), 1667445).
inCause((983073,1667445,58057,1667483,579237), 983073).
inCause((983073,1667445,58057,1667483,291410), 291410).
inCause((983073,1667445,58057,1667483,291410), 1667483).
inCause((983073,1667445,58057,1667483,291410), 58057).
inCause((983073,1667445,58057,1667483,291410), 1667445).
inCause((983073,1667445,58057,1667483,291410), 983073).
inCause((983073,1667445,58057,1667483,112712), 112712).
inCause((983073,1667445,58057,1667483,112712), 1667483).
inCause((983073,1667445,58057,1667483,112712), 58057).
inCause((983073,1667445,58057,1667483,112712), 1667445).
inCause((983073,1667445,58057,1667483,112712), 983073).
inCause((764984,1667445,58057,1667483,2020354), 2020354).
inCause((764984,1667445,58057,1667483,2020354), 1667483).
inCause((764984,1667445,58057,1667483,2020354), 58057).
inCause((764984,1667445,58057,1667483,2020354), 1667445).
inCause((764984,1667445,58057,1667483,2020354), 764984).
inCause((764984,1667445,58057,1667483,1228140), 1228140).
inCause((764984,1667445,58057,1667483,1228140), 1667483).
inCause((764984,1667445,58057,1667483,1228140), 58057).
inCause((764984,1667445,58057,1667483,1228140), 1667445).
inCause((764984,1667445,58057,1667483,1228140), 764984).
inCause((764984,1667445,58057,1667483,796704), 796704).
inCause((764984,1667445,58057,1667483,796704), 1667483).
inCause((764984,1667445,58057,1667483,796704), 58057).
inCause((764984,1667445,58057,1667483,796704), 1667445).
inCause((764984,1667445,58057,1667483,796704), 764984).
inCause((764984,1667445,58057,1667483,579237), 579237).
inCause((764984,1667445,58057,1667483,579237), 1667483).
inCause((764984,1667445,58057,1667483,579237), 58057).
inCause((764984,1667445,58057,1667483,579237), 1667445).
inCause((764984,1667445,58057,1667483,579237), 764984).
inCause((764984,1667445,58057,1667483,291410), 291410).
inCause((764984,1667445,58057,1667483,291410), 1667483).
inCause((764984,1667445,58057,1667483,291410), 58057).
inCause((764984,1667445,58057,1667483,291410), 1667445).
inCause((764984,1667445,58057,1667483,291410), 764984).
inCause((764984,1667445,58057,1667483,112712), 112712).
inCause((764984,1667445,58057,1667483,112712), 1667483).
inCause((764984,1667445,58057,1667483,112712), 58057).
inCause((764984,1667445,58057,1667483,112712), 1667445).
inCause((764984,1667445,58057,1667483,112712), 764984).
inCause((592528,1667445,58057,1667483,2020354), 2020354).
inCause((592528,1667445,58057,1667483,2020354), 1667483).
inCause((592528,1667445,58057,1667483,2020354), 58057).
inCause((592528,1667445,58057,1667483,2020354), 1667445).
inCause((592528,1667445,58057,1667483,2020354), 592528).
inCause((592528,1667445,58057,1667483,1228140), 1228140).
inCause((592528,1667445,58057,1667483,1228140), 1667483).
inCause((592528,1667445,58057,1667483,1228140), 58057).
inCause((592528,1667445,58057,1667483,1228140), 1667445).
inCause((592528,1667445,58057,1667483,1228140), 592528).
inCause((592528,1667445,58057,1667483,796704), 796704).
inCause((592528,1667445,58057,1667483,796704), 1667483).
inCause((592528,1667445,58057,1667483,796704), 58057).
inCause((592528,1667445,58057,1667483,796704), 1667445).
inCause((592528,1667445,58057,1667483,796704), 592528).
inCause((592528,1667445,58057,1667483,579237), 579237).
inCause((592528,1667445,58057,1667483,579237), 1667483).
inCause((592528,1667445,58057,1667483,579237), 58057).
inCause((592528,1667445,58057,1667483,579237), 1667445).
inCause((592528,1667445,58057,1667483,579237), 592528).
inCause((592528,1667445,58057,1667483,291410), 291410).
inCause((592528,1667445,58057,1667483,291410), 1667483).
inCause((592528,1667445,58057,1667483,291410), 58057).
inCause((592528,1667445,58057,1667483,291410), 1667445).
inCause((592528,1667445,58057,1667483,291410), 592528).
inCause((592528,1667445,58057,1667483,112712), 112712).
inCause((592528,1667445,58057,1667483,112712), 1667483).
inCause((592528,1667445,58057,1667483,112712), 58057).
inCause((592528,1667445,58057,1667483,112712), 1667445).
inCause((592528,1667445,58057,1667483,112712), 592528).
inCause((580619,1667445,58057,1667483,2020354), 2020354).
inCause((580619,1667445,58057,1667483,2020354), 1667483).
inCause((580619,1667445,58057,1667483,2020354), 58057).
inCause((580619,1667445,58057,1667483,2020354), 1667445).
inCause((580619,1667445,58057,1667483,2020354), 580619).
inCause((580619,1667445,58057,1667483,1228140), 1228140).
inCause((580619,1667445,58057,1667483,1228140), 1667483).
inCause((580619,1667445,58057,1667483,1228140), 58057).
inCause((580619,1667445,58057,1667483,1228140), 1667445).
inCause((580619,1667445,58057,1667483,1228140), 580619).
inCause((580619,1667445,58057,1667483,796704), 796704).
inCause((580619,1667445,58057,1667483,796704), 1667483).
inCause((580619,1667445,58057,1667483,796704), 58057).
inCause((580619,1667445,58057,1667483,796704), 1667445).
inCause((580619,1667445,58057,1667483,796704), 580619).
inCause((580619,1667445,58057,1667483,579237), 579237).
inCause((580619,1667445,58057,1667483,579237), 1667483).
inCause((580619,1667445,58057,1667483,579237), 58057).
inCause((580619,1667445,58057,1667483,579237), 1667445).
inCause((580619,1667445,58057,1667483,579237), 580619).
inCause((580619,1667445,58057,1667483,291410), 291410).
inCause((580619,1667445,58057,1667483,291410), 1667483).
inCause((580619,1667445,58057,1667483,291410), 58057).
inCause((580619,1667445,58057,1667483,291410), 1667445).
inCause((580619,1667445,58057,1667483,291410), 580619).
inCause((580619,1667445,58057,1667483,112712), 112712).
inCause((580619,1667445,58057,1667483,112712), 1667483).
inCause((580619,1667445,58057,1667483,112712), 58057).
inCause((580619,1667445,58057,1667483,112712), 1667445).
inCause((580619,1667445,58057,1667483,112712), 580619).
inCause((77298,1667445,58057,1667483,2020354), 2020354).
inCause((77298,1667445,58057,1667483,2020354), 1667483).
inCause((77298,1667445,58057,1667483,2020354), 58057).
inCause((77298,1667445,58057,1667483,2020354), 1667445).
inCause((77298,1667445,58057,1667483,2020354), 77298).
inCause((77298,1667445,58057,1667483,1228140), 1228140).
inCause((77298,1667445,58057,1667483,1228140), 1667483).
inCause((77298,1667445,58057,1667483,1228140), 58057).
inCause((77298,1667445,58057,1667483,1228140), 1667445).
inCause((77298,1667445,58057,1667483,1228140), 77298).
inCause((77298,1667445,58057,1667483,796704), 796704).
inCause((77298,1667445,58057,1667483,796704), 1667483).
inCause((77298,1667445,58057,1667483,796704), 58057).
inCause((77298,1667445,58057,1667483,796704), 1667445).
inCause((77298,1667445,58057,1667483,796704), 77298).
inCause((77298,1667445,58057,1667483,579237), 579237).
inCause((77298,1667445,58057,1667483,579237), 1667483).
inCause((77298,1667445,58057,1667483,579237), 58057).
inCause((77298,1667445,58057,1667483,579237), 1667445).
inCause((77298,1667445,58057,1667483,579237), 77298).
inCause((77298,1667445,58057,1667483,291410), 291410).
inCause((77298,1667445,58057,1667483,291410), 1667483).
inCause((77298,1667445,58057,1667483,291410), 58057).
inCause((77298,1667445,58057,1667483,291410), 1667445).
inCause((77298,1667445,58057,1667483,291410), 77298).
inCause((77298,1667445,58057,1667483,112712), 112712).
inCause((77298,1667445,58057,1667483,112712), 1667483).
inCause((77298,1667445,58057,1667483,112712), 58057).
inCause((77298,1667445,58057,1667483,112712), 1667445).
inCause((77298,1667445,58057,1667483,112712), 77298).
