cause((1984486,1667446,68012,1667429,1992599)).
cause((1984486,1667446,68012,1667429,983066)).
cause((1984486,1667446,68012,1667429,805512)).
cause((1984486,1667446,68012,1667429,578593)).
cause((1984486,1667446,68012,1667429,290613)).
cause((1984486,1667446,68012,1667429,111988)).
cause((1974972,1667446,68012,1667429,1992599)).
cause((1974972,1667446,68012,1667429,983066)).
cause((1974972,1667446,68012,1667429,805512)).
cause((1974972,1667446,68012,1667429,578593)).
cause((1974972,1667446,68012,1667429,290613)).
cause((1974972,1667446,68012,1667429,111988)).
cause((983073,1667446,68012,1667429,1992599)).
cause((983073,1667446,68012,1667429,983066)).
cause((983073,1667446,68012,1667429,805512)).
cause((983073,1667446,68012,1667429,578593)).
cause((983073,1667446,68012,1667429,290613)).
cause((983073,1667446,68012,1667429,111988)).
cause((764984,1667446,68012,1667429,1992599)).
cause((764984,1667446,68012,1667429,983066)).
cause((764984,1667446,68012,1667429,805512)).
cause((764984,1667446,68012,1667429,578593)).
cause((764984,1667446,68012,1667429,290613)).
cause((764984,1667446,68012,1667429,111988)).
cause((592528,1667446,68012,1667429,1992599)).
cause((592528,1667446,68012,1667429,983066)).
cause((592528,1667446,68012,1667429,805512)).
cause((592528,1667446,68012,1667429,578593)).
cause((592528,1667446,68012,1667429,290613)).
cause((592528,1667446,68012,1667429,111988)).
cause((580619,1667446,68012,1667429,1992599)).
cause((580619,1667446,68012,1667429,983066)).
cause((580619,1667446,68012,1667429,805512)).
cause((580619,1667446,68012,1667429,578593)).
cause((580619,1667446,68012,1667429,290613)).
cause((580619,1667446,68012,1667429,111988)).
cause((77298,1667446,68012,1667429,1992599)).
cause((77298,1667446,68012,1667429,983066)).
cause((77298,1667446,68012,1667429,805512)).
cause((77298,1667446,68012,1667429,578593)).
cause((77298,1667446,68012,1667429,290613)).
cause((77298,1667446,68012,1667429,111988)).
inCause((1984486,1667446,68012,1667429,1992599), 1992599).
inCause((1984486,1667446,68012,1667429,1992599), 1667429).
inCause((1984486,1667446,68012,1667429,1992599), 68012).
inCause((1984486,1667446,68012,1667429,1992599), 1667446).
inCause((1984486,1667446,68012,1667429,1992599), 1984486).
inCause((1984486,1667446,68012,1667429,983066), 983066).
inCause((1984486,1667446,68012,1667429,983066), 1667429).
inCause((1984486,1667446,68012,1667429,983066), 68012).
inCause((1984486,1667446,68012,1667429,983066), 1667446).
inCause((1984486,1667446,68012,1667429,983066), 1984486).
inCause((1984486,1667446,68012,1667429,805512), 805512).
inCause((1984486,1667446,68012,1667429,805512), 1667429).
inCause((1984486,1667446,68012,1667429,805512), 68012).
inCause((1984486,1667446,68012,1667429,805512), 1667446).
inCause((1984486,1667446,68012,1667429,805512), 1984486).
inCause((1984486,1667446,68012,1667429,578593), 578593).
inCause((1984486,1667446,68012,1667429,578593), 1667429).
inCause((1984486,1667446,68012,1667429,578593), 68012).
inCause((1984486,1667446,68012,1667429,578593), 1667446).
inCause((1984486,1667446,68012,1667429,578593), 1984486).
inCause((1984486,1667446,68012,1667429,290613), 290613).
inCause((1984486,1667446,68012,1667429,290613), 1667429).
inCause((1984486,1667446,68012,1667429,290613), 68012).
inCause((1984486,1667446,68012,1667429,290613), 1667446).
inCause((1984486,1667446,68012,1667429,290613), 1984486).
inCause((1984486,1667446,68012,1667429,111988), 111988).
inCause((1984486,1667446,68012,1667429,111988), 1667429).
inCause((1984486,1667446,68012,1667429,111988), 68012).
inCause((1984486,1667446,68012,1667429,111988), 1667446).
inCause((1984486,1667446,68012,1667429,111988), 1984486).
inCause((1974972,1667446,68012,1667429,1992599), 1992599).
inCause((1974972,1667446,68012,1667429,1992599), 1667429).
inCause((1974972,1667446,68012,1667429,1992599), 68012).
inCause((1974972,1667446,68012,1667429,1992599), 1667446).
inCause((1974972,1667446,68012,1667429,1992599), 1974972).
inCause((1974972,1667446,68012,1667429,983066), 983066).
inCause((1974972,1667446,68012,1667429,983066), 1667429).
inCause((1974972,1667446,68012,1667429,983066), 68012).
inCause((1974972,1667446,68012,1667429,983066), 1667446).
inCause((1974972,1667446,68012,1667429,983066), 1974972).
inCause((1974972,1667446,68012,1667429,805512), 805512).
inCause((1974972,1667446,68012,1667429,805512), 1667429).
inCause((1974972,1667446,68012,1667429,805512), 68012).
inCause((1974972,1667446,68012,1667429,805512), 1667446).
inCause((1974972,1667446,68012,1667429,805512), 1974972).
inCause((1974972,1667446,68012,1667429,578593), 578593).
inCause((1974972,1667446,68012,1667429,578593), 1667429).
inCause((1974972,1667446,68012,1667429,578593), 68012).
inCause((1974972,1667446,68012,1667429,578593), 1667446).
inCause((1974972,1667446,68012,1667429,578593), 1974972).
inCause((1974972,1667446,68012,1667429,290613), 290613).
inCause((1974972,1667446,68012,1667429,290613), 1667429).
inCause((1974972,1667446,68012,1667429,290613), 68012).
inCause((1974972,1667446,68012,1667429,290613), 1667446).
inCause((1974972,1667446,68012,1667429,290613), 1974972).
inCause((1974972,1667446,68012,1667429,111988), 111988).
inCause((1974972,1667446,68012,1667429,111988), 1667429).
inCause((1974972,1667446,68012,1667429,111988), 68012).
inCause((1974972,1667446,68012,1667429,111988), 1667446).
inCause((1974972,1667446,68012,1667429,111988), 1974972).
inCause((983073,1667446,68012,1667429,1992599), 1992599).
inCause((983073,1667446,68012,1667429,1992599), 1667429).
inCause((983073,1667446,68012,1667429,1992599), 68012).
inCause((983073,1667446,68012,1667429,1992599), 1667446).
inCause((983073,1667446,68012,1667429,1992599), 983073).
inCause((983073,1667446,68012,1667429,983066), 983066).
inCause((983073,1667446,68012,1667429,983066), 1667429).
inCause((983073,1667446,68012,1667429,983066), 68012).
inCause((983073,1667446,68012,1667429,983066), 1667446).
inCause((983073,1667446,68012,1667429,983066), 983073).
inCause((983073,1667446,68012,1667429,805512), 805512).
inCause((983073,1667446,68012,1667429,805512), 1667429).
inCause((983073,1667446,68012,1667429,805512), 68012).
inCause((983073,1667446,68012,1667429,805512), 1667446).
inCause((983073,1667446,68012,1667429,805512), 983073).
inCause((983073,1667446,68012,1667429,578593), 578593).
inCause((983073,1667446,68012,1667429,578593), 1667429).
inCause((983073,1667446,68012,1667429,578593), 68012).
inCause((983073,1667446,68012,1667429,578593), 1667446).
inCause((983073,1667446,68012,1667429,578593), 983073).
inCause((983073,1667446,68012,1667429,290613), 290613).
inCause((983073,1667446,68012,1667429,290613), 1667429).
inCause((983073,1667446,68012,1667429,290613), 68012).
inCause((983073,1667446,68012,1667429,290613), 1667446).
inCause((983073,1667446,68012,1667429,290613), 983073).
inCause((983073,1667446,68012,1667429,111988), 111988).
inCause((983073,1667446,68012,1667429,111988), 1667429).
inCause((983073,1667446,68012,1667429,111988), 68012).
inCause((983073,1667446,68012,1667429,111988), 1667446).
inCause((983073,1667446,68012,1667429,111988), 983073).
inCause((764984,1667446,68012,1667429,1992599), 1992599).
inCause((764984,1667446,68012,1667429,1992599), 1667429).
inCause((764984,1667446,68012,1667429,1992599), 68012).
inCause((764984,1667446,68012,1667429,1992599), 1667446).
inCause((764984,1667446,68012,1667429,1992599), 764984).
inCause((764984,1667446,68012,1667429,983066), 983066).
inCause((764984,1667446,68012,1667429,983066), 1667429).
inCause((764984,1667446,68012,1667429,983066), 68012).
inCause((764984,1667446,68012,1667429,983066), 1667446).
inCause((764984,1667446,68012,1667429,983066), 764984).
inCause((764984,1667446,68012,1667429,805512), 805512).
inCause((764984,1667446,68012,1667429,805512), 1667429).
inCause((764984,1667446,68012,1667429,805512), 68012).
inCause((764984,1667446,68012,1667429,805512), 1667446).
inCause((764984,1667446,68012,1667429,805512), 764984).
inCause((764984,1667446,68012,1667429,578593), 578593).
inCause((764984,1667446,68012,1667429,578593), 1667429).
inCause((764984,1667446,68012,1667429,578593), 68012).
inCause((764984,1667446,68012,1667429,578593), 1667446).
inCause((764984,1667446,68012,1667429,578593), 764984).
inCause((764984,1667446,68012,1667429,290613), 290613).
inCause((764984,1667446,68012,1667429,290613), 1667429).
inCause((764984,1667446,68012,1667429,290613), 68012).
inCause((764984,1667446,68012,1667429,290613), 1667446).
inCause((764984,1667446,68012,1667429,290613), 764984).
inCause((764984,1667446,68012,1667429,111988), 111988).
inCause((764984,1667446,68012,1667429,111988), 1667429).
inCause((764984,1667446,68012,1667429,111988), 68012).
inCause((764984,1667446,68012,1667429,111988), 1667446).
inCause((764984,1667446,68012,1667429,111988), 764984).
inCause((592528,1667446,68012,1667429,1992599), 1992599).
inCause((592528,1667446,68012,1667429,1992599), 1667429).
inCause((592528,1667446,68012,1667429,1992599), 68012).
inCause((592528,1667446,68012,1667429,1992599), 1667446).
inCause((592528,1667446,68012,1667429,1992599), 592528).
inCause((592528,1667446,68012,1667429,983066), 983066).
inCause((592528,1667446,68012,1667429,983066), 1667429).
inCause((592528,1667446,68012,1667429,983066), 68012).
inCause((592528,1667446,68012,1667429,983066), 1667446).
inCause((592528,1667446,68012,1667429,983066), 592528).
inCause((592528,1667446,68012,1667429,805512), 805512).
inCause((592528,1667446,68012,1667429,805512), 1667429).
inCause((592528,1667446,68012,1667429,805512), 68012).
inCause((592528,1667446,68012,1667429,805512), 1667446).
inCause((592528,1667446,68012,1667429,805512), 592528).
inCause((592528,1667446,68012,1667429,578593), 578593).
inCause((592528,1667446,68012,1667429,578593), 1667429).
inCause((592528,1667446,68012,1667429,578593), 68012).
inCause((592528,1667446,68012,1667429,578593), 1667446).
inCause((592528,1667446,68012,1667429,578593), 592528).
inCause((592528,1667446,68012,1667429,290613), 290613).
inCause((592528,1667446,68012,1667429,290613), 1667429).
inCause((592528,1667446,68012,1667429,290613), 68012).
inCause((592528,1667446,68012,1667429,290613), 1667446).
inCause((592528,1667446,68012,1667429,290613), 592528).
inCause((592528,1667446,68012,1667429,111988), 111988).
inCause((592528,1667446,68012,1667429,111988), 1667429).
inCause((592528,1667446,68012,1667429,111988), 68012).
inCause((592528,1667446,68012,1667429,111988), 1667446).
inCause((592528,1667446,68012,1667429,111988), 592528).
inCause((580619,1667446,68012,1667429,1992599), 1992599).
inCause((580619,1667446,68012,1667429,1992599), 1667429).
inCause((580619,1667446,68012,1667429,1992599), 68012).
inCause((580619,1667446,68012,1667429,1992599), 1667446).
inCause((580619,1667446,68012,1667429,1992599), 580619).
inCause((580619,1667446,68012,1667429,983066), 983066).
inCause((580619,1667446,68012,1667429,983066), 1667429).
inCause((580619,1667446,68012,1667429,983066), 68012).
inCause((580619,1667446,68012,1667429,983066), 1667446).
inCause((580619,1667446,68012,1667429,983066), 580619).
inCause((580619,1667446,68012,1667429,805512), 805512).
inCause((580619,1667446,68012,1667429,805512), 1667429).
inCause((580619,1667446,68012,1667429,805512), 68012).
inCause((580619,1667446,68012,1667429,805512), 1667446).
inCause((580619,1667446,68012,1667429,805512), 580619).
inCause((580619,1667446,68012,1667429,578593), 578593).
inCause((580619,1667446,68012,1667429,578593), 1667429).
inCause((580619,1667446,68012,1667429,578593), 68012).
inCause((580619,1667446,68012,1667429,578593), 1667446).
inCause((580619,1667446,68012,1667429,578593), 580619).
inCause((580619,1667446,68012,1667429,290613), 290613).
inCause((580619,1667446,68012,1667429,290613), 1667429).
inCause((580619,1667446,68012,1667429,290613), 68012).
inCause((580619,1667446,68012,1667429,290613), 1667446).
inCause((580619,1667446,68012,1667429,290613), 580619).
inCause((580619,1667446,68012,1667429,111988), 111988).
inCause((580619,1667446,68012,1667429,111988), 1667429).
inCause((580619,1667446,68012,1667429,111988), 68012).
inCause((580619,1667446,68012,1667429,111988), 1667446).
inCause((580619,1667446,68012,1667429,111988), 580619).
inCause((77298,1667446,68012,1667429,1992599), 1992599).
inCause((77298,1667446,68012,1667429,1992599), 1667429).
inCause((77298,1667446,68012,1667429,1992599), 68012).
inCause((77298,1667446,68012,1667429,1992599), 1667446).
inCause((77298,1667446,68012,1667429,1992599), 77298).
inCause((77298,1667446,68012,1667429,983066), 983066).
inCause((77298,1667446,68012,1667429,983066), 1667429).
inCause((77298,1667446,68012,1667429,983066), 68012).
inCause((77298,1667446,68012,1667429,983066), 1667446).
inCause((77298,1667446,68012,1667429,983066), 77298).
inCause((77298,1667446,68012,1667429,805512), 805512).
inCause((77298,1667446,68012,1667429,805512), 1667429).
inCause((77298,1667446,68012,1667429,805512), 68012).
inCause((77298,1667446,68012,1667429,805512), 1667446).
inCause((77298,1667446,68012,1667429,805512), 77298).
inCause((77298,1667446,68012,1667429,578593), 578593).
inCause((77298,1667446,68012,1667429,578593), 1667429).
inCause((77298,1667446,68012,1667429,578593), 68012).
inCause((77298,1667446,68012,1667429,578593), 1667446).
inCause((77298,1667446,68012,1667429,578593), 77298).
inCause((77298,1667446,68012,1667429,290613), 290613).
inCause((77298,1667446,68012,1667429,290613), 1667429).
inCause((77298,1667446,68012,1667429,290613), 68012).
inCause((77298,1667446,68012,1667429,290613), 1667446).
inCause((77298,1667446,68012,1667429,290613), 77298).
inCause((77298,1667446,68012,1667429,111988), 111988).
inCause((77298,1667446,68012,1667429,111988), 1667429).
inCause((77298,1667446,68012,1667429,111988), 68012).
inCause((77298,1667446,68012,1667429,111988), 1667446).
inCause((77298,1667446,68012,1667429,111988), 77298).
