cause((1984486,1667445,58057,1667467,1986553)).
cause((1984486,1667445,58057,1667467,1228524)).
cause((1984486,1667445,58057,1667467,1227848)).
cause((1984486,1667445,58057,1667467,1228077)).
cause((1984486,1667445,58057,1667467,1228113)).
cause((1984486,1667445,58057,1667467,1227912)).
cause((1984486,1667445,58057,1667467,983084)).
cause((1984486,1667445,58057,1667467,580305)).
cause((1984486,1667445,58057,1667467,90977)).
cause((1974972,1667445,58057,1667467,1986553)).
cause((1974972,1667445,58057,1667467,1228524)).
cause((1974972,1667445,58057,1667467,1227848)).
cause((1974972,1667445,58057,1667467,1228077)).
cause((1974972,1667445,58057,1667467,1228113)).
cause((1974972,1667445,58057,1667467,1227912)).
cause((1974972,1667445,58057,1667467,983084)).
cause((1974972,1667445,58057,1667467,580305)).
cause((1974972,1667445,58057,1667467,90977)).
cause((983073,1667445,58057,1667467,1986553)).
cause((983073,1667445,58057,1667467,1228524)).
cause((983073,1667445,58057,1667467,1227848)).
cause((983073,1667445,58057,1667467,1228077)).
cause((983073,1667445,58057,1667467,1228113)).
cause((983073,1667445,58057,1667467,1227912)).
cause((983073,1667445,58057,1667467,983084)).
cause((983073,1667445,58057,1667467,580305)).
cause((983073,1667445,58057,1667467,90977)).
cause((764984,1667445,58057,1667467,1986553)).
cause((764984,1667445,58057,1667467,1228524)).
cause((764984,1667445,58057,1667467,1227848)).
cause((764984,1667445,58057,1667467,1228077)).
cause((764984,1667445,58057,1667467,1228113)).
cause((764984,1667445,58057,1667467,1227912)).
cause((764984,1667445,58057,1667467,983084)).
cause((764984,1667445,58057,1667467,580305)).
cause((764984,1667445,58057,1667467,90977)).
cause((592528,1667445,58057,1667467,1986553)).
cause((592528,1667445,58057,1667467,1228524)).
cause((592528,1667445,58057,1667467,1227848)).
cause((592528,1667445,58057,1667467,1228077)).
cause((592528,1667445,58057,1667467,1228113)).
cause((592528,1667445,58057,1667467,1227912)).
cause((592528,1667445,58057,1667467,983084)).
cause((592528,1667445,58057,1667467,580305)).
cause((592528,1667445,58057,1667467,90977)).
cause((580619,1667445,58057,1667467,1986553)).
cause((580619,1667445,58057,1667467,1228524)).
cause((580619,1667445,58057,1667467,1227848)).
cause((580619,1667445,58057,1667467,1228077)).
cause((580619,1667445,58057,1667467,1228113)).
cause((580619,1667445,58057,1667467,1227912)).
cause((580619,1667445,58057,1667467,983084)).
cause((580619,1667445,58057,1667467,580305)).
cause((580619,1667445,58057,1667467,90977)).
cause((77298,1667445,58057,1667467,1986553)).
cause((77298,1667445,58057,1667467,1228524)).
cause((77298,1667445,58057,1667467,1227848)).
cause((77298,1667445,58057,1667467,1228077)).
cause((77298,1667445,58057,1667467,1228113)).
cause((77298,1667445,58057,1667467,1227912)).
cause((77298,1667445,58057,1667467,983084)).
cause((77298,1667445,58057,1667467,580305)).
cause((77298,1667445,58057,1667467,90977)).
inCause((1984486,1667445,58057,1667467,1986553), 1986553).
inCause((1984486,1667445,58057,1667467,1986553), 1667467).
inCause((1984486,1667445,58057,1667467,1986553), 58057).
inCause((1984486,1667445,58057,1667467,1986553), 1667445).
inCause((1984486,1667445,58057,1667467,1986553), 1984486).
inCause((1984486,1667445,58057,1667467,1228524), 1228524).
inCause((1984486,1667445,58057,1667467,1228524), 1667467).
inCause((1984486,1667445,58057,1667467,1228524), 58057).
inCause((1984486,1667445,58057,1667467,1228524), 1667445).
inCause((1984486,1667445,58057,1667467,1228524), 1984486).
inCause((1984486,1667445,58057,1667467,1227848), 1227848).
inCause((1984486,1667445,58057,1667467,1227848), 1667467).
inCause((1984486,1667445,58057,1667467,1227848), 58057).
inCause((1984486,1667445,58057,1667467,1227848), 1667445).
inCause((1984486,1667445,58057,1667467,1227848), 1984486).
inCause((1984486,1667445,58057,1667467,1228077), 1228077).
inCause((1984486,1667445,58057,1667467,1228077), 1667467).
inCause((1984486,1667445,58057,1667467,1228077), 58057).
inCause((1984486,1667445,58057,1667467,1228077), 1667445).
inCause((1984486,1667445,58057,1667467,1228077), 1984486).
inCause((1984486,1667445,58057,1667467,1228113), 1228113).
inCause((1984486,1667445,58057,1667467,1228113), 1667467).
inCause((1984486,1667445,58057,1667467,1228113), 58057).
inCause((1984486,1667445,58057,1667467,1228113), 1667445).
inCause((1984486,1667445,58057,1667467,1228113), 1984486).
inCause((1984486,1667445,58057,1667467,1227912), 1227912).
inCause((1984486,1667445,58057,1667467,1227912), 1667467).
inCause((1984486,1667445,58057,1667467,1227912), 58057).
inCause((1984486,1667445,58057,1667467,1227912), 1667445).
inCause((1984486,1667445,58057,1667467,1227912), 1984486).
inCause((1984486,1667445,58057,1667467,983084), 983084).
inCause((1984486,1667445,58057,1667467,983084), 1667467).
inCause((1984486,1667445,58057,1667467,983084), 58057).
inCause((1984486,1667445,58057,1667467,983084), 1667445).
inCause((1984486,1667445,58057,1667467,983084), 1984486).
inCause((1984486,1667445,58057,1667467,580305), 580305).
inCause((1984486,1667445,58057,1667467,580305), 1667467).
inCause((1984486,1667445,58057,1667467,580305), 58057).
inCause((1984486,1667445,58057,1667467,580305), 1667445).
inCause((1984486,1667445,58057,1667467,580305), 1984486).
inCause((1984486,1667445,58057,1667467,90977), 90977).
inCause((1984486,1667445,58057,1667467,90977), 1667467).
inCause((1984486,1667445,58057,1667467,90977), 58057).
inCause((1984486,1667445,58057,1667467,90977), 1667445).
inCause((1984486,1667445,58057,1667467,90977), 1984486).
inCause((1974972,1667445,58057,1667467,1986553), 1986553).
inCause((1974972,1667445,58057,1667467,1986553), 1667467).
inCause((1974972,1667445,58057,1667467,1986553), 58057).
inCause((1974972,1667445,58057,1667467,1986553), 1667445).
inCause((1974972,1667445,58057,1667467,1986553), 1974972).
inCause((1974972,1667445,58057,1667467,1228524), 1228524).
inCause((1974972,1667445,58057,1667467,1228524), 1667467).
inCause((1974972,1667445,58057,1667467,1228524), 58057).
inCause((1974972,1667445,58057,1667467,1228524), 1667445).
inCause((1974972,1667445,58057,1667467,1228524), 1974972).
inCause((1974972,1667445,58057,1667467,1227848), 1227848).
inCause((1974972,1667445,58057,1667467,1227848), 1667467).
inCause((1974972,1667445,58057,1667467,1227848), 58057).
inCause((1974972,1667445,58057,1667467,1227848), 1667445).
inCause((1974972,1667445,58057,1667467,1227848), 1974972).
inCause((1974972,1667445,58057,1667467,1228077), 1228077).
inCause((1974972,1667445,58057,1667467,1228077), 1667467).
inCause((1974972,1667445,58057,1667467,1228077), 58057).
inCause((1974972,1667445,58057,1667467,1228077), 1667445).
inCause((1974972,1667445,58057,1667467,1228077), 1974972).
inCause((1974972,1667445,58057,1667467,1228113), 1228113).
inCause((1974972,1667445,58057,1667467,1228113), 1667467).
inCause((1974972,1667445,58057,1667467,1228113), 58057).
inCause((1974972,1667445,58057,1667467,1228113), 1667445).
inCause((1974972,1667445,58057,1667467,1228113), 1974972).
inCause((1974972,1667445,58057,1667467,1227912), 1227912).
inCause((1974972,1667445,58057,1667467,1227912), 1667467).
inCause((1974972,1667445,58057,1667467,1227912), 58057).
inCause((1974972,1667445,58057,1667467,1227912), 1667445).
inCause((1974972,1667445,58057,1667467,1227912), 1974972).
inCause((1974972,1667445,58057,1667467,983084), 983084).
inCause((1974972,1667445,58057,1667467,983084), 1667467).
inCause((1974972,1667445,58057,1667467,983084), 58057).
inCause((1974972,1667445,58057,1667467,983084), 1667445).
inCause((1974972,1667445,58057,1667467,983084), 1974972).
inCause((1974972,1667445,58057,1667467,580305), 580305).
inCause((1974972,1667445,58057,1667467,580305), 1667467).
inCause((1974972,1667445,58057,1667467,580305), 58057).
inCause((1974972,1667445,58057,1667467,580305), 1667445).
inCause((1974972,1667445,58057,1667467,580305), 1974972).
inCause((1974972,1667445,58057,1667467,90977), 90977).
inCause((1974972,1667445,58057,1667467,90977), 1667467).
inCause((1974972,1667445,58057,1667467,90977), 58057).
inCause((1974972,1667445,58057,1667467,90977), 1667445).
inCause((1974972,1667445,58057,1667467,90977), 1974972).
inCause((983073,1667445,58057,1667467,1986553), 1986553).
inCause((983073,1667445,58057,1667467,1986553), 1667467).
inCause((983073,1667445,58057,1667467,1986553), 58057).
inCause((983073,1667445,58057,1667467,1986553), 1667445).
inCause((983073,1667445,58057,1667467,1986553), 983073).
inCause((983073,1667445,58057,1667467,1228524), 1228524).
inCause((983073,1667445,58057,1667467,1228524), 1667467).
inCause((983073,1667445,58057,1667467,1228524), 58057).
inCause((983073,1667445,58057,1667467,1228524), 1667445).
inCause((983073,1667445,58057,1667467,1228524), 983073).
inCause((983073,1667445,58057,1667467,1227848), 1227848).
inCause((983073,1667445,58057,1667467,1227848), 1667467).
inCause((983073,1667445,58057,1667467,1227848), 58057).
inCause((983073,1667445,58057,1667467,1227848), 1667445).
inCause((983073,1667445,58057,1667467,1227848), 983073).
inCause((983073,1667445,58057,1667467,1228077), 1228077).
inCause((983073,1667445,58057,1667467,1228077), 1667467).
inCause((983073,1667445,58057,1667467,1228077), 58057).
inCause((983073,1667445,58057,1667467,1228077), 1667445).
inCause((983073,1667445,58057,1667467,1228077), 983073).
inCause((983073,1667445,58057,1667467,1228113), 1228113).
inCause((983073,1667445,58057,1667467,1228113), 1667467).
inCause((983073,1667445,58057,1667467,1228113), 58057).
inCause((983073,1667445,58057,1667467,1228113), 1667445).
inCause((983073,1667445,58057,1667467,1228113), 983073).
inCause((983073,1667445,58057,1667467,1227912), 1227912).
inCause((983073,1667445,58057,1667467,1227912), 1667467).
inCause((983073,1667445,58057,1667467,1227912), 58057).
inCause((983073,1667445,58057,1667467,1227912), 1667445).
inCause((983073,1667445,58057,1667467,1227912), 983073).
inCause((983073,1667445,58057,1667467,983084), 983084).
inCause((983073,1667445,58057,1667467,983084), 1667467).
inCause((983073,1667445,58057,1667467,983084), 58057).
inCause((983073,1667445,58057,1667467,983084), 1667445).
inCause((983073,1667445,58057,1667467,983084), 983073).
inCause((983073,1667445,58057,1667467,580305), 580305).
inCause((983073,1667445,58057,1667467,580305), 1667467).
inCause((983073,1667445,58057,1667467,580305), 58057).
inCause((983073,1667445,58057,1667467,580305), 1667445).
inCause((983073,1667445,58057,1667467,580305), 983073).
inCause((983073,1667445,58057,1667467,90977), 90977).
inCause((983073,1667445,58057,1667467,90977), 1667467).
inCause((983073,1667445,58057,1667467,90977), 58057).
inCause((983073,1667445,58057,1667467,90977), 1667445).
inCause((983073,1667445,58057,1667467,90977), 983073).
inCause((764984,1667445,58057,1667467,1986553), 1986553).
inCause((764984,1667445,58057,1667467,1986553), 1667467).
inCause((764984,1667445,58057,1667467,1986553), 58057).
inCause((764984,1667445,58057,1667467,1986553), 1667445).
inCause((764984,1667445,58057,1667467,1986553), 764984).
inCause((764984,1667445,58057,1667467,1228524), 1228524).
inCause((764984,1667445,58057,1667467,1228524), 1667467).
inCause((764984,1667445,58057,1667467,1228524), 58057).
inCause((764984,1667445,58057,1667467,1228524), 1667445).
inCause((764984,1667445,58057,1667467,1228524), 764984).
inCause((764984,1667445,58057,1667467,1227848), 1227848).
inCause((764984,1667445,58057,1667467,1227848), 1667467).
inCause((764984,1667445,58057,1667467,1227848), 58057).
inCause((764984,1667445,58057,1667467,1227848), 1667445).
inCause((764984,1667445,58057,1667467,1227848), 764984).
inCause((764984,1667445,58057,1667467,1228077), 1228077).
inCause((764984,1667445,58057,1667467,1228077), 1667467).
inCause((764984,1667445,58057,1667467,1228077), 58057).
inCause((764984,1667445,58057,1667467,1228077), 1667445).
inCause((764984,1667445,58057,1667467,1228077), 764984).
inCause((764984,1667445,58057,1667467,1228113), 1228113).
inCause((764984,1667445,58057,1667467,1228113), 1667467).
inCause((764984,1667445,58057,1667467,1228113), 58057).
inCause((764984,1667445,58057,1667467,1228113), 1667445).
inCause((764984,1667445,58057,1667467,1228113), 764984).
inCause((764984,1667445,58057,1667467,1227912), 1227912).
inCause((764984,1667445,58057,1667467,1227912), 1667467).
inCause((764984,1667445,58057,1667467,1227912), 58057).
inCause((764984,1667445,58057,1667467,1227912), 1667445).
inCause((764984,1667445,58057,1667467,1227912), 764984).
inCause((764984,1667445,58057,1667467,983084), 983084).
inCause((764984,1667445,58057,1667467,983084), 1667467).
inCause((764984,1667445,58057,1667467,983084), 58057).
inCause((764984,1667445,58057,1667467,983084), 1667445).
inCause((764984,1667445,58057,1667467,983084), 764984).
inCause((764984,1667445,58057,1667467,580305), 580305).
inCause((764984,1667445,58057,1667467,580305), 1667467).
inCause((764984,1667445,58057,1667467,580305), 58057).
inCause((764984,1667445,58057,1667467,580305), 1667445).
inCause((764984,1667445,58057,1667467,580305), 764984).
inCause((764984,1667445,58057,1667467,90977), 90977).
inCause((764984,1667445,58057,1667467,90977), 1667467).
inCause((764984,1667445,58057,1667467,90977), 58057).
inCause((764984,1667445,58057,1667467,90977), 1667445).
inCause((764984,1667445,58057,1667467,90977), 764984).
inCause((592528,1667445,58057,1667467,1986553), 1986553).
inCause((592528,1667445,58057,1667467,1986553), 1667467).
inCause((592528,1667445,58057,1667467,1986553), 58057).
inCause((592528,1667445,58057,1667467,1986553), 1667445).
inCause((592528,1667445,58057,1667467,1986553), 592528).
inCause((592528,1667445,58057,1667467,1228524), 1228524).
inCause((592528,1667445,58057,1667467,1228524), 1667467).
inCause((592528,1667445,58057,1667467,1228524), 58057).
inCause((592528,1667445,58057,1667467,1228524), 1667445).
inCause((592528,1667445,58057,1667467,1228524), 592528).
inCause((592528,1667445,58057,1667467,1227848), 1227848).
inCause((592528,1667445,58057,1667467,1227848), 1667467).
inCause((592528,1667445,58057,1667467,1227848), 58057).
inCause((592528,1667445,58057,1667467,1227848), 1667445).
inCause((592528,1667445,58057,1667467,1227848), 592528).
inCause((592528,1667445,58057,1667467,1228077), 1228077).
inCause((592528,1667445,58057,1667467,1228077), 1667467).
inCause((592528,1667445,58057,1667467,1228077), 58057).
inCause((592528,1667445,58057,1667467,1228077), 1667445).
inCause((592528,1667445,58057,1667467,1228077), 592528).
inCause((592528,1667445,58057,1667467,1228113), 1228113).
inCause((592528,1667445,58057,1667467,1228113), 1667467).
inCause((592528,1667445,58057,1667467,1228113), 58057).
inCause((592528,1667445,58057,1667467,1228113), 1667445).
inCause((592528,1667445,58057,1667467,1228113), 592528).
inCause((592528,1667445,58057,1667467,1227912), 1227912).
inCause((592528,1667445,58057,1667467,1227912), 1667467).
inCause((592528,1667445,58057,1667467,1227912), 58057).
inCause((592528,1667445,58057,1667467,1227912), 1667445).
inCause((592528,1667445,58057,1667467,1227912), 592528).
inCause((592528,1667445,58057,1667467,983084), 983084).
inCause((592528,1667445,58057,1667467,983084), 1667467).
inCause((592528,1667445,58057,1667467,983084), 58057).
inCause((592528,1667445,58057,1667467,983084), 1667445).
inCause((592528,1667445,58057,1667467,983084), 592528).
inCause((592528,1667445,58057,1667467,580305), 580305).
inCause((592528,1667445,58057,1667467,580305), 1667467).
inCause((592528,1667445,58057,1667467,580305), 58057).
inCause((592528,1667445,58057,1667467,580305), 1667445).
inCause((592528,1667445,58057,1667467,580305), 592528).
inCause((592528,1667445,58057,1667467,90977), 90977).
inCause((592528,1667445,58057,1667467,90977), 1667467).
inCause((592528,1667445,58057,1667467,90977), 58057).
inCause((592528,1667445,58057,1667467,90977), 1667445).
inCause((592528,1667445,58057,1667467,90977), 592528).
inCause((580619,1667445,58057,1667467,1986553), 1986553).
inCause((580619,1667445,58057,1667467,1986553), 1667467).
inCause((580619,1667445,58057,1667467,1986553), 58057).
inCause((580619,1667445,58057,1667467,1986553), 1667445).
inCause((580619,1667445,58057,1667467,1986553), 580619).
inCause((580619,1667445,58057,1667467,1228524), 1228524).
inCause((580619,1667445,58057,1667467,1228524), 1667467).
inCause((580619,1667445,58057,1667467,1228524), 58057).
inCause((580619,1667445,58057,1667467,1228524), 1667445).
inCause((580619,1667445,58057,1667467,1228524), 580619).
inCause((580619,1667445,58057,1667467,1227848), 1227848).
inCause((580619,1667445,58057,1667467,1227848), 1667467).
inCause((580619,1667445,58057,1667467,1227848), 58057).
inCause((580619,1667445,58057,1667467,1227848), 1667445).
inCause((580619,1667445,58057,1667467,1227848), 580619).
inCause((580619,1667445,58057,1667467,1228077), 1228077).
inCause((580619,1667445,58057,1667467,1228077), 1667467).
inCause((580619,1667445,58057,1667467,1228077), 58057).
inCause((580619,1667445,58057,1667467,1228077), 1667445).
inCause((580619,1667445,58057,1667467,1228077), 580619).
inCause((580619,1667445,58057,1667467,1228113), 1228113).
inCause((580619,1667445,58057,1667467,1228113), 1667467).
inCause((580619,1667445,58057,1667467,1228113), 58057).
inCause((580619,1667445,58057,1667467,1228113), 1667445).
inCause((580619,1667445,58057,1667467,1228113), 580619).
inCause((580619,1667445,58057,1667467,1227912), 1227912).
inCause((580619,1667445,58057,1667467,1227912), 1667467).
inCause((580619,1667445,58057,1667467,1227912), 58057).
inCause((580619,1667445,58057,1667467,1227912), 1667445).
inCause((580619,1667445,58057,1667467,1227912), 580619).
inCause((580619,1667445,58057,1667467,983084), 983084).
inCause((580619,1667445,58057,1667467,983084), 1667467).
inCause((580619,1667445,58057,1667467,983084), 58057).
inCause((580619,1667445,58057,1667467,983084), 1667445).
inCause((580619,1667445,58057,1667467,983084), 580619).
inCause((580619,1667445,58057,1667467,580305), 580305).
inCause((580619,1667445,58057,1667467,580305), 1667467).
inCause((580619,1667445,58057,1667467,580305), 58057).
inCause((580619,1667445,58057,1667467,580305), 1667445).
inCause((580619,1667445,58057,1667467,580305), 580619).
inCause((580619,1667445,58057,1667467,90977), 90977).
inCause((580619,1667445,58057,1667467,90977), 1667467).
inCause((580619,1667445,58057,1667467,90977), 58057).
inCause((580619,1667445,58057,1667467,90977), 1667445).
inCause((580619,1667445,58057,1667467,90977), 580619).
inCause((77298,1667445,58057,1667467,1986553), 1986553).
inCause((77298,1667445,58057,1667467,1986553), 1667467).
inCause((77298,1667445,58057,1667467,1986553), 58057).
inCause((77298,1667445,58057,1667467,1986553), 1667445).
inCause((77298,1667445,58057,1667467,1986553), 77298).
inCause((77298,1667445,58057,1667467,1228524), 1228524).
inCause((77298,1667445,58057,1667467,1228524), 1667467).
inCause((77298,1667445,58057,1667467,1228524), 58057).
inCause((77298,1667445,58057,1667467,1228524), 1667445).
inCause((77298,1667445,58057,1667467,1228524), 77298).
inCause((77298,1667445,58057,1667467,1227848), 1227848).
inCause((77298,1667445,58057,1667467,1227848), 1667467).
inCause((77298,1667445,58057,1667467,1227848), 58057).
inCause((77298,1667445,58057,1667467,1227848), 1667445).
inCause((77298,1667445,58057,1667467,1227848), 77298).
inCause((77298,1667445,58057,1667467,1228077), 1228077).
inCause((77298,1667445,58057,1667467,1228077), 1667467).
inCause((77298,1667445,58057,1667467,1228077), 58057).
inCause((77298,1667445,58057,1667467,1228077), 1667445).
inCause((77298,1667445,58057,1667467,1228077), 77298).
inCause((77298,1667445,58057,1667467,1228113), 1228113).
inCause((77298,1667445,58057,1667467,1228113), 1667467).
inCause((77298,1667445,58057,1667467,1228113), 58057).
inCause((77298,1667445,58057,1667467,1228113), 1667445).
inCause((77298,1667445,58057,1667467,1228113), 77298).
inCause((77298,1667445,58057,1667467,1227912), 1227912).
inCause((77298,1667445,58057,1667467,1227912), 1667467).
inCause((77298,1667445,58057,1667467,1227912), 58057).
inCause((77298,1667445,58057,1667467,1227912), 1667445).
inCause((77298,1667445,58057,1667467,1227912), 77298).
inCause((77298,1667445,58057,1667467,983084), 983084).
inCause((77298,1667445,58057,1667467,983084), 1667467).
inCause((77298,1667445,58057,1667467,983084), 58057).
inCause((77298,1667445,58057,1667467,983084), 1667445).
inCause((77298,1667445,58057,1667467,983084), 77298).
inCause((77298,1667445,58057,1667467,580305), 580305).
inCause((77298,1667445,58057,1667467,580305), 1667467).
inCause((77298,1667445,58057,1667467,580305), 58057).
inCause((77298,1667445,58057,1667467,580305), 1667445).
inCause((77298,1667445,58057,1667467,580305), 77298).
inCause((77298,1667445,58057,1667467,90977), 90977).
inCause((77298,1667445,58057,1667467,90977), 1667467).
inCause((77298,1667445,58057,1667467,90977), 58057).
inCause((77298,1667445,58057,1667467,90977), 1667445).
inCause((77298,1667445,58057,1667467,90977), 77298).
